p cnf 521 17903
-1 -10 -18 -25 -31 -5 0
-1 -10 -18 -26 -31 -4 0
-1 -10 -19 -25 -26 -5 0
-1 -10 -19 -31 -26 -3 0
-1 -10 -20 -26 -25 -4 0
-1 -10 -20 -31 -25 -3 0
-1 -11 -18 -19 -31 -5 0
-1 -11 -18 -20 -31 -4 0
-1 -11 -25 -19 -20 -5 0
-1 -11 -25 -31 -20 -2 0
-1 -11 -26 -20 -19 -4 0
-1 -11 -26 -31 -19 -2 0
-1 -12 -19 -18 -26 -5 0
-1 -12 -19 -20 -26 -3 0
-1 -12 -25 -18 -20 -5 0
-1 -12 -25 -26 -20 -2 0
-1 -12 -31 -20 -18 -3 0
-1 -12 -31 -26 -18 -2 0
-1 -13 -20 -18 -25 -4 0
-1 -13 -20 -19 -25 -3 0
-1 -13 -26 -18 -19 -4 0
-1 -13 -26 -25 -19 -2 0
-1 -13 -31 -19 -18 -3 0
-1 -13 -31 -25 -18 -2 0
-2 -10 -11 -25 -31 -5 0
-2 -10 -11 -26 -31 -4 0
-2 -10 -12 -25 -26 -5 0
-2 -10 -12 -31 -26 -3 0
-2 -10 -13 -26 -25 -4 0
-2 -10 -13 -31 -25 -3 0
-2 -18 -11 -12 -31 -5 0
-2 -18 -11 -13 -31 -4 0
-2 -18 -25 -12 -13 -5 0
-2 -18 -26 -13 -12 -4 0
-2 -19 -12 -11 -26 -5 0
-2 -19 -12 -13 -26 -3 0
-2 -19 -25 -11 -13 -5 0
-2 -19 -31 -13 -11 -3 0
-2 -20 -13 -11 -25 -4 0
-2 -20 -13 -12 -25 -3 0
-2 -20 -26 -11 -12 -4 0
-2 -20 -31 -12 -11 -3 0
-3 -11 -10 -19 -31 -5 0
-3 -11 -10 -20 -31 -4 0
-3 -11 -12 -19 -20 -5 0
-3 -11 -13 -20 -19 -4 0
-3 -18 -10 -12 -31 -5 0
-3 -18 -10 -13 -31 -4 0
-3 -18 -19 -12 -13 -5 0
-3 -18 -20 -13 -12 -4 0
-3 -25 -12 -10 -20 -5 0
-3 -25 -19 -10 -13 -5 0
-3 -26 -13 -10 -19 -4 0
-3 -26 -20 -10 -12 -4 0
-4 -12 -10 -18 -26 -5 0
-4 -12 -11 -18 -20 -5 0
-4 -19 -10 -11 -26 -5 0
-4 -19 -18 -11 -13 -5 0
-4 -25 -11 -10 -20 -5 0
-4 -25 -18 -10 -13 -5 0
-1 -10 -18 -25 -32 -6 0
-1 -10 -18 -27 -32 -4 0
-1 -10 -19 -25 -27 -6 0
-1 -10 -19 -32 -27 -3 0
-1 -10 -21 -27 -25 -4 0
-1 -10 -21 -32 -25 -3 0
-1 -11 -18 -19 -32 -6 0
-1 -11 -18 -21 -32 -4 0
-1 -11 -25 -19 -21 -6 0
-1 -11 -25 -32 -21 -2 0
-1 -11 -27 -21 -19 -4 0
-1 -11 -27 -32 -19 -2 0
-1 -12 -19 -18 -27 -6 0
-1 -12 -19 -21 -27 -3 0
-1 -12 -25 -18 -21 -6 0
-1 -12 -25 -27 -21 -2 0
-1 -12 -32 -21 -18 -3 0
-1 -12 -32 -27 -18 -2 0
-1 -14 -21 -18 -25 -4 0
-1 -14 -21 -19 -25 -3 0
-1 -14 -27 -18 -19 -4 0
-1 -14 -27 -25 -19 -2 0
-1 -14 -32 -19 -18 -3 0
-1 -14 -32 -25 -18 -2 0
-2 -10 -11 -25 -32 -6 0
-2 -10 -11 -27 -32 -4 0
-2 -10 -12 -25 -27 -6 0
-2 -10 -12 -32 -27 -3 0
-2 -10 -14 -27 -25 -4 0
-2 -10 -14 -32 -25 -3 0
-2 -18 -11 -12 -32 -6 0
-2 -18 -11 -14 -32 -4 0
-2 -18 -25 -12 -14 -6 0
-2 -18 -27 -14 -12 -4 0
-2 -19 -12 -11 -27 -6 0
-2 -19 -12 -14 -27 -3 0
-2 -19 -25 -11 -14 -6 0
-2 -19 -32 -14 -11 -3 0
-2 -21 -14 -11 -25 -4 0
-2 -21 -14 -12 -25 -3 0
-2 -21 -27 -11 -12 -4 0
-2 -21 -32 -12 -11 -3 0
-3 -11 -10 -19 -32 -6 0
-3 -11 -10 -21 -32 -4 0
-3 -11 -12 -19 -21 -6 0
-3 -11 -14 -21 -19 -4 0
-3 -18 -10 -12 -32 -6 0
-3 -18 -10 -14 -32 -4 0
-3 -18 -19 -12 -14 -6 0
-3 -18 -21 -14 -12 -4 0
-3 -25 -12 -10 -21 -6 0
-3 -25 -19 -10 -14 -6 0
-3 -27 -14 -10 -19 -4 0
-3 -27 -21 -10 -12 -4 0
-4 -12 -10 -18 -27 -6 0
-4 -12 -11 -18 -21 -6 0
-4 -19 -10 -11 -27 -6 0
-4 -19 -18 -11 -14 -6 0
-4 -25 -11 -10 -21 -6 0
-4 -25 -18 -10 -14 -6 0
-1 -10 -18 -25 -33 -7 0
-1 -10 -18 -28 -33 -4 0
-1 -10 -19 -25 -28 -7 0
-1 -10 -19 -33 -28 -3 0
-1 -10 -22 -28 -25 -4 0
-1 -10 -22 -33 -25 -3 0
-1 -11 -18 -19 -33 -7 0
-1 -11 -18 -22 -33 -4 0
-1 -11 -25 -19 -22 -7 0
-1 -11 -25 -33 -22 -2 0
-1 -11 -28 -22 -19 -4 0
-1 -11 -28 -33 -19 -2 0
-1 -12 -19 -18 -28 -7 0
-1 -12 -19 -22 -28 -3 0
-1 -12 -25 -18 -22 -7 0
-1 -12 -25 -28 -22 -2 0
-1 -12 -33 -22 -18 -3 0
-1 -12 -33 -28 -18 -2 0
-1 -15 -22 -18 -25 -4 0
-1 -15 -22 -19 -25 -3 0
-1 -15 -28 -18 -19 -4 0
-1 -15 -28 -25 -19 -2 0
-1 -15 -33 -19 -18 -3 0
-1 -15 -33 -25 -18 -2 0
-2 -10 -11 -25 -33 -7 0
-2 -10 -11 -28 -33 -4 0
-2 -10 -12 -25 -28 -7 0
-2 -10 -12 -33 -28 -3 0
-2 -10 -15 -28 -25 -4 0
-2 -10 -15 -33 -25 -3 0
-2 -18 -11 -12 -33 -7 0
-2 -18 -11 -15 -33 -4 0
-2 -18 -25 -12 -15 -7 0
-2 -18 -28 -15 -12 -4 0
-2 -19 -12 -11 -28 -7 0
-2 -19 -12 -15 -28 -3 0
-2 -19 -25 -11 -15 -7 0
-2 -19 -33 -15 -11 -3 0
-2 -22 -15 -11 -25 -4 0
-2 -22 -15 -12 -25 -3 0
-2 -22 -28 -11 -12 -4 0
-2 -22 -33 -12 -11 -3 0
-3 -11 -10 -19 -33 -7 0
-3 -11 -10 -22 -33 -4 0
-3 -11 -12 -19 -22 -7 0
-3 -11 -15 -22 -19 -4 0
-3 -18 -10 -12 -33 -7 0
-3 -18 -10 -15 -33 -4 0
-3 -18 -19 -12 -15 -7 0
-3 -18 -22 -15 -12 -4 0
-3 -25 -12 -10 -22 -7 0
-3 -25 -19 -10 -15 -7 0
-3 -28 -15 -10 -19 -4 0
-3 -28 -22 -10 -12 -4 0
-4 -12 -10 -18 -28 -7 0
-4 -12 -11 -18 -22 -7 0
-4 -19 -10 -11 -28 -7 0
-4 -19 -18 -11 -15 -7 0
-4 -25 -11 -10 -22 -7 0
-4 -25 -18 -10 -15 -7 0
-1 -10 -18 -25 -34 -8 0
-1 -10 -18 -29 -34 -4 0
-1 -10 -19 -25 -29 -8 0
-1 -10 -19 -34 -29 -3 0
-1 -10 -23 -29 -25 -4 0
-1 -10 -23 -34 -25 -3 0
-1 -11 -18 -19 -34 -8 0
-1 -11 -18 -23 -34 -4 0
-1 -11 -25 -19 -23 -8 0
-1 -11 -25 -34 -23 -2 0
-1 -11 -29 -23 -19 -4 0
-1 -11 -29 -34 -19 -2 0
-1 -12 -19 -18 -29 -8 0
-1 -12 -19 -23 -29 -3 0
-1 -12 -25 -18 -23 -8 0
-1 -12 -25 -29 -23 -2 0
-1 -12 -34 -23 -18 -3 0
-1 -12 -34 -29 -18 -2 0
-1 -16 -23 -18 -25 -4 0
-1 -16 -23 -19 -25 -3 0
-1 -16 -29 -18 -19 -4 0
-1 -16 -29 -25 -19 -2 0
-1 -16 -34 -19 -18 -3 0
-1 -16 -34 -25 -18 -2 0
-2 -10 -11 -25 -34 -8 0
-2 -10 -11 -29 -34 -4 0
-2 -10 -12 -25 -29 -8 0
-2 -10 -12 -34 -29 -3 0
-2 -10 -16 -29 -25 -4 0
-2 -10 -16 -34 -25 -3 0
-2 -18 -11 -12 -34 -8 0
-2 -18 -11 -16 -34 -4 0
-2 -18 -25 -12 -16 -8 0
-2 -18 -29 -16 -12 -4 0
-2 -19 -12 -11 -29 -8 0
-2 -19 -12 -16 -29 -3 0
-2 -19 -25 -11 -16 -8 0
-2 -19 -34 -16 -11 -3 0
-2 -23 -16 -11 -25 -4 0
-2 -23 -16 -12 -25 -3 0
-2 -23 -29 -11 -12 -4 0
-2 -23 -34 -12 -11 -3 0
-3 -11 -10 -19 -34 -8 0
-3 -11 -10 -23 -34 -4 0
-3 -11 -12 -19 -23 -8 0
-3 -11 -16 -23 -19 -4 0
-3 -18 -10 -12 -34 -8 0
-3 -18 -10 -16 -34 -4 0
-3 -18 -19 -12 -16 -8 0
-3 -18 -23 -16 -12 -4 0
-3 -25 -12 -10 -23 -8 0
-3 -25 -19 -10 -16 -8 0
-3 -29 -16 -10 -19 -4 0
-3 -29 -23 -10 -12 -4 0
-4 -12 -10 -18 -29 -8 0
-4 -12 -11 -18 -23 -8 0
-4 -19 -10 -11 -29 -8 0
-4 -19 -18 -11 -16 -8 0
-4 -25 -11 -10 -23 -8 0
-4 -25 -18 -10 -16 -8 0
-1 -10 -18 -25 -35 -9 0
-1 -10 -18 -30 -35 -4 0
-1 -10 -19 -25 -30 -9 0
-1 -10 -19 -35 -30 -3 0
-1 -10 -24 -30 -25 -4 0
-1 -10 -24 -35 -25 -3 0
-1 -11 -18 -19 -35 -9 0
-1 -11 -18 -24 -35 -4 0
-1 -11 -25 -19 -24 -9 0
-1 -11 -25 -35 -24 -2 0
-1 -11 -30 -24 -19 -4 0
-1 -11 -30 -35 -19 -2 0
-1 -12 -19 -18 -30 -9 0
-1 -12 -19 -24 -30 -3 0
-1 -12 -25 -18 -24 -9 0
-1 -12 -25 -30 -24 -2 0
-1 -12 -35 -24 -18 -3 0
-1 -12 -35 -30 -18 -2 0
-1 -17 -24 -18 -25 -4 0
-1 -17 -24 -19 -25 -3 0
-1 -17 -30 -18 -19 -4 0
-1 -17 -30 -25 -19 -2 0
-1 -17 -35 -19 -18 -3 0
-1 -17 -35 -25 -18 -2 0
-2 -10 -11 -25 -35 -9 0
-2 -10 -11 -30 -35 -4 0
-2 -10 -12 -25 -30 -9 0
-2 -10 -12 -35 -30 -3 0
-2 -10 -17 -30 -25 -4 0
-2 -10 -17 -35 -25 -3 0
-2 -18 -11 -12 -35 -9 0
-2 -18 -11 -17 -35 -4 0
-2 -18 -25 -12 -17 -9 0
-2 -18 -30 -17 -12 -4 0
-2 -19 -12 -11 -30 -9 0
-2 -19 -12 -17 -30 -3 0
-2 -19 -25 -11 -17 -9 0
-2 -19 -35 -17 -11 -3 0
-2 -24 -17 -11 -25 -4 0
-2 -24 -17 -12 -25 -3 0
-2 -24 -30 -11 -12 -4 0
-2 -24 -35 -12 -11 -3 0
-3 -11 -10 -19 -35 -9 0
-3 -11 -10 -24 -35 -4 0
-3 -11 -12 -19 -24 -9 0
-3 -11 -17 -24 -19 -4 0
-3 -18 -10 -12 -35 -9 0
-3 -18 -10 -17 -35 -4 0
-3 -18 -19 -12 -17 -9 0
-3 -18 -24 -17 -12 -4 0
-3 -25 -12 -10 -24 -9 0
-3 -25 -19 -10 -17 -9 0
-3 -30 -17 -10 -19 -4 0
-3 -30 -24 -10 -12 -4 0
-4 -12 -10 -18 -30 -9 0
-4 -12 -11 -18 -24 -9 0
-4 -19 -10 -11 -30 -9 0
-4 -19 -18 -11 -17 -9 0
-4 -25 -11 -10 -24 -9 0
-4 -25 -18 -10 -17 -9 0
-1 -10 -18 -26 -36 -6 0
-1 -10 -18 -27 -36 -5 0
-1 -10 -20 -26 -27 -6 0
-1 -10 -20 -36 -27 -3 0
-1 -10 -21 -27 -26 -5 0
-1 -10 -21 -36 -26 -3 0
-1 -11 -18 -20 -36 -6 0
-1 -11 -18 -21 -36 -5 0
-1 -11 -26 -20 -21 -6 0
-1 -11 -26 -36 -21 -2 0
-1 -11 -27 -21 -20 -5 0
-1 -11 -27 -36 -20 -2 0
-1 -13 -20 -18 -27 -6 0
-1 -13 -20 -21 -27 -3 0
-1 -13 -26 -18 -21 -6 0
-1 -13 -26 -27 -21 -2 0
-1 -13 -36 -21 -18 -3 0
-1 -13 -36 -27 -18 -2 0
-1 -14 -21 -18 -26 -5 0
-1 -14 -21 -20 -26 -3 0
-1 -14 -27 -18 -20 -5 0
-1 -14 -27 -26 -20 -2 0
-1 -14 -36 -20 -18 -3 0
-1 -14 -36 -26 -18 -2 0
-2 -10 -11 -26 -36 -6 0
-2 -10 -11 -27 -36 -5 0
-2 -10 -13 -26 -27 -6 0
-2 -10 -13 -36 -27 -3 0
-2 -10 -14 -27 -26 -5 0
-2 -10 -14 -36 -26 -3 0
-2 -18 -11 -13 -36 -6 0
-2 -18 -11 -14 -36 -5 0
-2 -18 -26 -13 -14 -6 0
-2 -18 -27 -14 -13 -5 0
-2 -20 -13 -11 -27 -6 0
-2 -20 -13 -14 -27 -3 0
-2 -20 -26 -11 -14 -6 0
-2 -20 -36 -14 -11 -3 0
-2 -21 -14 -11 -26 -5 0
-2 -21 -14 -13 -26 -3 0
-2 -21 -27 -11 -13 -5 0
-2 -21 -36 -13 -11 -3 0
-3 -11 -10 -20 -36 -6 0
-3 -11 -10 -21 -36 -5 0
-3 -11 -13 -20 -21 -6 0
-3 -11 -14 -21 -20 -5 0
-3 -18 -10 -13 -36 -6 0
-3 -18 -10 -14 -36 -5 0
-3 -18 -20 -13 -14 -6 0
-3 -18 -21 -14 -13 -5 0
-3 -26 -13 -10 -21 -6 0
-3 -26 -20 -10 -14 -6 0
-3 -27 -14 -10 -20 -5 0
-3 -27 -21 -10 -13 -5 0
-5 -13 -10 -18 -27 -6 0
-5 -13 -11 -18 -21 -6 0
-5 -20 -10 -11 -27 -6 0
-5 -20 -18 -11 -14 -6 0
-5 -26 -11 -10 -21 -6 0
-5 -26 -18 -10 -14 -6 0
-1 -10 -18 -26 -37 -7 0
-1 -10 -18 -28 -37 -5 0
-1 -10 -20 -26 -28 -7 0
-1 -10 -20 -37 -28 -3 0
-1 -10 -22 -28 -26 -5 0
-1 -10 -22 -37 -26 -3 0
-1 -11 -18 -20 -37 -7 0
-1 -11 -18 -22 -37 -5 0
-1 -11 -26 -20 -22 -7 0
-1 -11 -26 -37 -22 -2 0
-1 -11 -28 -22 -20 -5 0
-1 -11 -28 -37 -20 -2 0
-1 -13 -20 -18 -28 -7 0
-1 -13 -20 -22 -28 -3 0
-1 -13 -26 -18 -22 -7 0
-1 -13 -26 -28 -22 -2 0
-1 -13 -37 -22 -18 -3 0
-1 -13 -37 -28 -18 -2 0
-1 -15 -22 -18 -26 -5 0
-1 -15 -22 -20 -26 -3 0
-1 -15 -28 -18 -20 -5 0
-1 -15 -28 -26 -20 -2 0
-1 -15 -37 -20 -18 -3 0
-1 -15 -37 -26 -18 -2 0
-2 -10 -11 -26 -37 -7 0
-2 -10 -11 -28 -37 -5 0
-2 -10 -13 -26 -28 -7 0
-2 -10 -13 -37 -28 -3 0
-2 -10 -15 -28 -26 -5 0
-2 -10 -15 -37 -26 -3 0
-2 -18 -11 -13 -37 -7 0
-2 -18 -11 -15 -37 -5 0
-2 -18 -26 -13 -15 -7 0
-2 -18 -28 -15 -13 -5 0
-2 -20 -13 -11 -28 -7 0
-2 -20 -13 -15 -28 -3 0
-2 -20 -26 -11 -15 -7 0
-2 -20 -37 -15 -11 -3 0
-2 -22 -15 -11 -26 -5 0
-2 -22 -15 -13 -26 -3 0
-2 -22 -28 -11 -13 -5 0
-2 -22 -37 -13 -11 -3 0
-3 -11 -10 -20 -37 -7 0
-3 -11 -10 -22 -37 -5 0
-3 -11 -13 -20 -22 -7 0
-3 -11 -15 -22 -20 -5 0
-3 -18 -10 -13 -37 -7 0
-3 -18 -10 -15 -37 -5 0
-3 -18 -20 -13 -15 -7 0
-3 -18 -22 -15 -13 -5 0
-3 -26 -13 -10 -22 -7 0
-3 -26 -20 -10 -15 -7 0
-3 -28 -15 -10 -20 -5 0
-3 -28 -22 -10 -13 -5 0
-5 -13 -10 -18 -28 -7 0
-5 -13 -11 -18 -22 -7 0
-5 -20 -10 -11 -28 -7 0
-5 -20 -18 -11 -15 -7 0
-5 -26 -11 -10 -22 -7 0
-5 -26 -18 -10 -15 -7 0
-1 -10 -18 -26 -38 -8 0
-1 -10 -18 -29 -38 -5 0
-1 -10 -20 -26 -29 -8 0
-1 -10 -20 -38 -29 -3 0
-1 -10 -23 -29 -26 -5 0
-1 -10 -23 -38 -26 -3 0
-1 -11 -18 -20 -38 -8 0
-1 -11 -18 -23 -38 -5 0
-1 -11 -26 -20 -23 -8 0
-1 -11 -26 -38 -23 -2 0
-1 -11 -29 -23 -20 -5 0
-1 -11 -29 -38 -20 -2 0
-1 -13 -20 -18 -29 -8 0
-1 -13 -20 -23 -29 -3 0
-1 -13 -26 -18 -23 -8 0
-1 -13 -26 -29 -23 -2 0
-1 -13 -38 -23 -18 -3 0
-1 -13 -38 -29 -18 -2 0
-1 -16 -23 -18 -26 -5 0
-1 -16 -23 -20 -26 -3 0
-1 -16 -29 -18 -20 -5 0
-1 -16 -29 -26 -20 -2 0
-1 -16 -38 -20 -18 -3 0
-1 -16 -38 -26 -18 -2 0
-2 -10 -11 -26 -38 -8 0
-2 -10 -11 -29 -38 -5 0
-2 -10 -13 -26 -29 -8 0
-2 -10 -13 -38 -29 -3 0
-2 -10 -16 -29 -26 -5 0
-2 -10 -16 -38 -26 -3 0
-2 -18 -11 -13 -38 -8 0
-2 -18 -11 -16 -38 -5 0
-2 -18 -26 -13 -16 -8 0
-2 -18 -29 -16 -13 -5 0
-2 -20 -13 -11 -29 -8 0
-2 -20 -13 -16 -29 -3 0
-2 -20 -26 -11 -16 -8 0
-2 -20 -38 -16 -11 -3 0
-2 -23 -16 -11 -26 -5 0
-2 -23 -16 -13 -26 -3 0
-2 -23 -29 -11 -13 -5 0
-2 -23 -38 -13 -11 -3 0
-3 -11 -10 -20 -38 -8 0
-3 -11 -10 -23 -38 -5 0
-3 -11 -13 -20 -23 -8 0
-3 -11 -16 -23 -20 -5 0
-3 -18 -10 -13 -38 -8 0
-3 -18 -10 -16 -38 -5 0
-3 -18 -20 -13 -16 -8 0
-3 -18 -23 -16 -13 -5 0
-3 -26 -13 -10 -23 -8 0
-3 -26 -20 -10 -16 -8 0
-3 -29 -16 -10 -20 -5 0
-3 -29 -23 -10 -13 -5 0
-5 -13 -10 -18 -29 -8 0
-5 -13 -11 -18 -23 -8 0
-5 -20 -10 -11 -29 -8 0
-5 -20 -18 -11 -16 -8 0
-5 -26 -11 -10 -23 -8 0
-5 -26 -18 -10 -16 -8 0
-1 -10 -18 -26 -39 -9 0
-1 -10 -18 -30 -39 -5 0
-1 -10 -20 -26 -30 -9 0
-1 -10 -20 -39 -30 -3 0
-1 -10 -24 -30 -26 -5 0
-1 -10 -24 -39 -26 -3 0
-1 -11 -18 -20 -39 -9 0
-1 -11 -18 -24 -39 -5 0
-1 -11 -26 -20 -24 -9 0
-1 -11 -26 -39 -24 -2 0
-1 -11 -30 -24 -20 -5 0
-1 -11 -30 -39 -20 -2 0
-1 -13 -20 -18 -30 -9 0
-1 -13 -20 -24 -30 -3 0
-1 -13 -26 -18 -24 -9 0
-1 -13 -26 -30 -24 -2 0
-1 -13 -39 -24 -18 -3 0
-1 -13 -39 -30 -18 -2 0
-1 -17 -24 -18 -26 -5 0
-1 -17 -24 -20 -26 -3 0
-1 -17 -30 -18 -20 -5 0
-1 -17 -30 -26 -20 -2 0
-1 -17 -39 -20 -18 -3 0
-1 -17 -39 -26 -18 -2 0
-2 -10 -11 -26 -39 -9 0
-2 -10 -11 -30 -39 -5 0
-2 -10 -13 -26 -30 -9 0
-2 -10 -13 -39 -30 -3 0
-2 -10 -17 -30 -26 -5 0
-2 -10 -17 -39 -26 -3 0
-2 -18 -11 -13 -39 -9 0
-2 -18 -11 -17 -39 -5 0
-2 -18 -26 -13 -17 -9 0
-2 -18 -30 -17 -13 -5 0
-2 -20 -13 -11 -30 -9 0
-2 -20 -13 -17 -30 -3 0
-2 -20 -26 -11 -17 -9 0
-2 -20 -39 -17 -11 -3 0
-2 -24 -17 -11 -26 -5 0
-2 -24 -17 -13 -26 -3 0
-2 -24 -30 -11 -13 -5 0
-2 -24 -39 -13 -11 -3 0
-3 -11 -10 -20 -39 -9 0
-3 -11 -10 -24 -39 -5 0
-3 -11 -13 -20 -24 -9 0
-3 -11 -17 -24 -20 -5 0
-3 -18 -10 -13 -39 -9 0
-3 -18 -10 -17 -39 -5 0
-3 -18 -20 -13 -17 -9 0
-3 -18 -24 -17 -13 -5 0
-3 -26 -13 -10 -24 -9 0
-3 -26 -20 -10 -17 -9 0
-3 -30 -17 -10 -20 -5 0
-3 -30 -24 -10 -13 -5 0
-5 -13 -10 -18 -30 -9 0
-5 -13 -11 -18 -24 -9 0
-5 -20 -10 -11 -30 -9 0
-5 -20 -18 -11 -17 -9 0
-5 -26 -11 -10 -24 -9 0
-5 -26 -18 -10 -17 -9 0
-1 -10 -18 -27 -40 -7 0
-1 -10 -18 -28 -40 -6 0
-1 -10 -21 -27 -28 -7 0
-1 -10 -21 -40 -28 -3 0
-1 -10 -22 -28 -27 -6 0
-1 -10 -22 -40 -27 -3 0
-1 -11 -18 -21 -40 -7 0
-1 -11 -18 -22 -40 -6 0
-1 -11 -27 -21 -22 -7 0
-1 -11 -27 -40 -22 -2 0
-1 -11 -28 -22 -21 -6 0
-1 -11 -28 -40 -21 -2 0
-1 -14 -21 -18 -28 -7 0
-1 -14 -21 -22 -28 -3 0
-1 -14 -27 -18 -22 -7 0
-1 -14 -27 -28 -22 -2 0
-1 -14 -40 -22 -18 -3 0
-1 -14 -40 -28 -18 -2 0
-1 -15 -22 -18 -27 -6 0
-1 -15 -22 -21 -27 -3 0
-1 -15 -28 -18 -21 -6 0
-1 -15 -28 -27 -21 -2 0
-1 -15 -40 -21 -18 -3 0
-1 -15 -40 -27 -18 -2 0
-2 -10 -11 -27 -40 -7 0
-2 -10 -11 -28 -40 -6 0
-2 -10 -14 -27 -28 -7 0
-2 -10 -14 -40 -28 -3 0
-2 -10 -15 -28 -27 -6 0
-2 -10 -15 -40 -27 -3 0
-2 -18 -11 -14 -40 -7 0
-2 -18 -11 -15 -40 -6 0
-2 -18 -27 -14 -15 -7 0
-2 -18 -28 -15 -14 -6 0
-2 -21 -14 -11 -28 -7 0
-2 -21 -14 -15 -28 -3 0
-2 -21 -27 -11 -15 -7 0
-2 -21 -40 -15 -11 -3 0
-2 -22 -15 -11 -27 -6 0
-2 -22 -15 -14 -27 -3 0
-2 -22 -28 -11 -14 -6 0
-2 -22 -40 -14 -11 -3 0
-3 -11 -10 -21 -40 -7 0
-3 -11 -10 -22 -40 -6 0
-3 -11 -14 -21 -22 -7 0
-3 -11 -15 -22 -21 -6 0
-3 -18 -10 -14 -40 -7 0
-3 -18 -10 -15 -40 -6 0
-3 -18 -21 -14 -15 -7 0
-3 -18 -22 -15 -14 -6 0
-3 -27 -14 -10 -22 -7 0
-3 -27 -21 -10 -15 -7 0
-3 -28 -15 -10 -21 -6 0
-3 -28 -22 -10 -14 -6 0
-6 -14 -10 -18 -28 -7 0
-6 -14 -11 -18 -22 -7 0
-6 -21 -10 -11 -28 -7 0
-6 -21 -18 -11 -15 -7 0
-6 -27 -11 -10 -22 -7 0
-6 -27 -18 -10 -15 -7 0
-1 -10 -18 -27 -41 -8 0
-1 -10 -18 -29 -41 -6 0
-1 -10 -21 -27 -29 -8 0
-1 -10 -21 -41 -29 -3 0
-1 -10 -23 -29 -27 -6 0
-1 -10 -23 -41 -27 -3 0
-1 -11 -18 -21 -41 -8 0
-1 -11 -18 -23 -41 -6 0
-1 -11 -27 -21 -23 -8 0
-1 -11 -27 -41 -23 -2 0
-1 -11 -29 -23 -21 -6 0
-1 -11 -29 -41 -21 -2 0
-1 -14 -21 -18 -29 -8 0
-1 -14 -21 -23 -29 -3 0
-1 -14 -27 -18 -23 -8 0
-1 -14 -27 -29 -23 -2 0
-1 -14 -41 -23 -18 -3 0
-1 -14 -41 -29 -18 -2 0
-1 -16 -23 -18 -27 -6 0
-1 -16 -23 -21 -27 -3 0
-1 -16 -29 -18 -21 -6 0
-1 -16 -29 -27 -21 -2 0
-1 -16 -41 -21 -18 -3 0
-1 -16 -41 -27 -18 -2 0
-2 -10 -11 -27 -41 -8 0
-2 -10 -11 -29 -41 -6 0
-2 -10 -14 -27 -29 -8 0
-2 -10 -14 -41 -29 -3 0
-2 -10 -16 -29 -27 -6 0
-2 -10 -16 -41 -27 -3 0
-2 -18 -11 -14 -41 -8 0
-2 -18 -11 -16 -41 -6 0
-2 -18 -27 -14 -16 -8 0
-2 -18 -29 -16 -14 -6 0
-2 -21 -14 -11 -29 -8 0
-2 -21 -14 -16 -29 -3 0
-2 -21 -27 -11 -16 -8 0
-2 -21 -41 -16 -11 -3 0
-2 -23 -16 -11 -27 -6 0
-2 -23 -16 -14 -27 -3 0
-2 -23 -29 -11 -14 -6 0
-2 -23 -41 -14 -11 -3 0
-3 -11 -10 -21 -41 -8 0
-3 -11 -10 -23 -41 -6 0
-3 -11 -14 -21 -23 -8 0
-3 -11 -16 -23 -21 -6 0
-3 -18 -10 -14 -41 -8 0
-3 -18 -10 -16 -41 -6 0
-3 -18 -21 -14 -16 -8 0
-3 -18 -23 -16 -14 -6 0
-3 -27 -14 -10 -23 -8 0
-3 -27 -21 -10 -16 -8 0
-3 -29 -16 -10 -21 -6 0
-3 -29 -23 -10 -14 -6 0
-6 -14 -10 -18 -29 -8 0
-6 -14 -11 -18 -23 -8 0
-6 -21 -10 -11 -29 -8 0
-6 -21 -18 -11 -16 -8 0
-6 -27 -11 -10 -23 -8 0
-6 -27 -18 -10 -16 -8 0
-1 -10 -18 -27 -42 -9 0
-1 -10 -18 -30 -42 -6 0
-1 -10 -21 -27 -30 -9 0
-1 -10 -21 -42 -30 -3 0
-1 -10 -24 -30 -27 -6 0
-1 -10 -24 -42 -27 -3 0
-1 -11 -18 -21 -42 -9 0
-1 -11 -18 -24 -42 -6 0
-1 -11 -27 -21 -24 -9 0
-1 -11 -27 -42 -24 -2 0
-1 -11 -30 -24 -21 -6 0
-1 -11 -30 -42 -21 -2 0
-1 -14 -21 -18 -30 -9 0
-1 -14 -21 -24 -30 -3 0
-1 -14 -27 -18 -24 -9 0
-1 -14 -27 -30 -24 -2 0
-1 -14 -42 -24 -18 -3 0
-1 -14 -42 -30 -18 -2 0
-1 -17 -24 -18 -27 -6 0
-1 -17 -24 -21 -27 -3 0
-1 -17 -30 -18 -21 -6 0
-1 -17 -30 -27 -21 -2 0
-1 -17 -42 -21 -18 -3 0
-1 -17 -42 -27 -18 -2 0
-2 -10 -11 -27 -42 -9 0
-2 -10 -11 -30 -42 -6 0
-2 -10 -14 -27 -30 -9 0
-2 -10 -14 -42 -30 -3 0
-2 -10 -17 -30 -27 -6 0
-2 -10 -17 -42 -27 -3 0
-2 -18 -11 -14 -42 -9 0
-2 -18 -11 -17 -42 -6 0
-2 -18 -27 -14 -17 -9 0
-2 -18 -30 -17 -14 -6 0
-2 -21 -14 -11 -30 -9 0
-2 -21 -14 -17 -30 -3 0
-2 -21 -27 -11 -17 -9 0
-2 -21 -42 -17 -11 -3 0
-2 -24 -17 -11 -27 -6 0
-2 -24 -17 -14 -27 -3 0
-2 -24 -30 -11 -14 -6 0
-2 -24 -42 -14 -11 -3 0
-3 -11 -10 -21 -42 -9 0
-3 -11 -10 -24 -42 -6 0
-3 -11 -14 -21 -24 -9 0
-3 -11 -17 -24 -21 -6 0
-3 -18 -10 -14 -42 -9 0
-3 -18 -10 -17 -42 -6 0
-3 -18 -21 -14 -17 -9 0
-3 -18 -24 -17 -14 -6 0
-3 -27 -14 -10 -24 -9 0
-3 -27 -21 -10 -17 -9 0
-3 -30 -17 -10 -21 -6 0
-3 -30 -24 -10 -14 -6 0
-6 -14 -10 -18 -30 -9 0
-6 -14 -11 -18 -24 -9 0
-6 -21 -10 -11 -30 -9 0
-6 -21 -18 -11 -17 -9 0
-6 -27 -11 -10 -24 -9 0
-6 -27 -18 -10 -17 -9 0
-1 -10 -18 -28 -43 -8 0
-1 -10 -18 -29 -43 -7 0
-1 -10 -22 -28 -29 -8 0
-1 -10 -22 -43 -29 -3 0
-1 -10 -23 -29 -28 -7 0
-1 -10 -23 -43 -28 -3 0
-1 -11 -18 -22 -43 -8 0
-1 -11 -18 -23 -43 -7 0
-1 -11 -28 -22 -23 -8 0
-1 -11 -28 -43 -23 -2 0
-1 -11 -29 -23 -22 -7 0
-1 -11 -29 -43 -22 -2 0
-1 -15 -22 -18 -29 -8 0
-1 -15 -22 -23 -29 -3 0
-1 -15 -28 -18 -23 -8 0
-1 -15 -28 -29 -23 -2 0
-1 -15 -43 -23 -18 -3 0
-1 -15 -43 -29 -18 -2 0
-1 -16 -23 -18 -28 -7 0
-1 -16 -23 -22 -28 -3 0
-1 -16 -29 -18 -22 -7 0
-1 -16 -29 -28 -22 -2 0
-1 -16 -43 -22 -18 -3 0
-1 -16 -43 -28 -18 -2 0
-2 -10 -11 -28 -43 -8 0
-2 -10 -11 -29 -43 -7 0
-2 -10 -15 -28 -29 -8 0
-2 -10 -15 -43 -29 -3 0
-2 -10 -16 -29 -28 -7 0
-2 -10 -16 -43 -28 -3 0
-2 -18 -11 -15 -43 -8 0
-2 -18 -11 -16 -43 -7 0
-2 -18 -28 -15 -16 -8 0
-2 -18 -29 -16 -15 -7 0
-2 -22 -15 -11 -29 -8 0
-2 -22 -15 -16 -29 -3 0
-2 -22 -28 -11 -16 -8 0
-2 -22 -43 -16 -11 -3 0
-2 -23 -16 -11 -28 -7 0
-2 -23 -16 -15 -28 -3 0
-2 -23 -29 -11 -15 -7 0
-2 -23 -43 -15 -11 -3 0
-3 -11 -10 -22 -43 -8 0
-3 -11 -10 -23 -43 -7 0
-3 -11 -15 -22 -23 -8 0
-3 -11 -16 -23 -22 -7 0
-3 -18 -10 -15 -43 -8 0
-3 -18 -10 -16 -43 -7 0
-3 -18 -22 -15 -16 -8 0
-3 -18 -23 -16 -15 -7 0
-3 -28 -15 -10 -23 -8 0
-3 -28 -22 -10 -16 -8 0
-3 -29 -16 -10 -22 -7 0
-3 -29 -23 -10 -15 -7 0
-7 -15 -10 -18 -29 -8 0
-7 -15 -11 -18 -23 -8 0
-7 -22 -10 -11 -29 -8 0
-7 -22 -18 -11 -16 -8 0
-7 -28 -11 -10 -23 -8 0
-7 -28 -18 -10 -16 -8 0
-1 -10 -18 -28 -44 -9 0
-1 -10 -18 -30 -44 -7 0
-1 -10 -22 -28 -30 -9 0
-1 -10 -22 -44 -30 -3 0
-1 -10 -24 -30 -28 -7 0
-1 -10 -24 -44 -28 -3 0
-1 -11 -18 -22 -44 -9 0
-1 -11 -18 -24 -44 -7 0
-1 -11 -28 -22 -24 -9 0
-1 -11 -28 -44 -24 -2 0
-1 -11 -30 -24 -22 -7 0
-1 -11 -30 -44 -22 -2 0
-1 -15 -22 -18 -30 -9 0
-1 -15 -22 -24 -30 -3 0
-1 -15 -28 -18 -24 -9 0
-1 -15 -28 -30 -24 -2 0
-1 -15 -44 -24 -18 -3 0
-1 -15 -44 -30 -18 -2 0
-1 -17 -24 -18 -28 -7 0
-1 -17 -24 -22 -28 -3 0
-1 -17 -30 -18 -22 -7 0
-1 -17 -30 -28 -22 -2 0
-1 -17 -44 -22 -18 -3 0
-1 -17 -44 -28 -18 -2 0
-2 -10 -11 -28 -44 -9 0
-2 -10 -11 -30 -44 -7 0
-2 -10 -15 -28 -30 -9 0
-2 -10 -15 -44 -30 -3 0
-2 -10 -17 -30 -28 -7 0
-2 -10 -17 -44 -28 -3 0
-2 -18 -11 -15 -44 -9 0
-2 -18 -11 -17 -44 -7 0
-2 -18 -28 -15 -17 -9 0
-2 -18 -30 -17 -15 -7 0
-2 -22 -15 -11 -30 -9 0
-2 -22 -15 -17 -30 -3 0
-2 -22 -28 -11 -17 -9 0
-2 -22 -44 -17 -11 -3 0
-2 -24 -17 -11 -28 -7 0
-2 -24 -17 -15 -28 -3 0
-2 -24 -30 -11 -15 -7 0
-2 -24 -44 -15 -11 -3 0
-3 -11 -10 -22 -44 -9 0
-3 -11 -10 -24 -44 -7 0
-3 -11 -15 -22 -24 -9 0
-3 -11 -17 -24 -22 -7 0
-3 -18 -10 -15 -44 -9 0
-3 -18 -10 -17 -44 -7 0
-3 -18 -22 -15 -17 -9 0
-3 -18 -24 -17 -15 -7 0
-3 -28 -15 -10 -24 -9 0
-3 -28 -22 -10 -17 -9 0
-3 -30 -17 -10 -22 -7 0
-3 -30 -24 -10 -15 -7 0
-7 -15 -10 -18 -30 -9 0
-7 -15 -11 -18 -24 -9 0
-7 -22 -10 -11 -30 -9 0
-7 -22 -18 -11 -17 -9 0
-7 -28 -11 -10 -24 -9 0
-7 -28 -18 -10 -17 -9 0
-1 -10 -18 -29 -45 -9 0
-1 -10 -18 -30 -45 -8 0
-1 -10 -23 -29 -30 -9 0
-1 -10 -23 -45 -30 -3 0
-1 -10 -24 -30 -29 -8 0
-1 -10 -24 -45 -29 -3 0
-1 -11 -18 -23 -45 -9 0
-1 -11 -18 -24 -45 -8 0
-1 -11 -29 -23 -24 -9 0
-1 -11 -29 -45 -24 -2 0
-1 -11 -30 -24 -23 -8 0
-1 -11 -30 -45 -23 -2 0
-1 -16 -23 -18 -30 -9 0
-1 -16 -23 -24 -30 -3 0
-1 -16 -29 -18 -24 -9 0
-1 -16 -29 -30 -24 -2 0
-1 -16 -45 -24 -18 -3 0
-1 -16 -45 -30 -18 -2 0
-1 -17 -24 -18 -29 -8 0
-1 -17 -24 -23 -29 -3 0
-1 -17 -30 -18 -23 -8 0
-1 -17 -30 -29 -23 -2 0
-1 -17 -45 -23 -18 -3 0
-1 -17 -45 -29 -18 -2 0
-2 -10 -11 -29 -45 -9 0
-2 -10 -11 -30 -45 -8 0
-2 -10 -16 -29 -30 -9 0
-2 -10 -16 -45 -30 -3 0
-2 -10 -17 -30 -29 -8 0
-2 -10 -17 -45 -29 -3 0
-2 -18 -11 -16 -45 -9 0
-2 -18 -11 -17 -45 -8 0
-2 -18 -29 -16 -17 -9 0
-2 -18 -30 -17 -16 -8 0
-2 -23 -16 -11 -30 -9 0
-2 -23 -16 -17 -30 -3 0
-2 -23 -29 -11 -17 -9 0
-2 -23 -45 -17 -11 -3 0
-2 -24 -17 -11 -29 -8 0
-2 -24 -17 -16 -29 -3 0
-2 -24 -30 -11 -16 -8 0
-2 -24 -45 -16 -11 -3 0
-3 -11 -10 -23 -45 -9 0
-3 -11 -10 -24 -45 -8 0
-3 -11 -16 -23 -24 -9 0
-3 -11 -17 -24 -23 -8 0
-3 -18 -10 -16 -45 -9 0
-3 -18 -10 -17 -45 -8 0
-3 -18 -23 -16 -17 -9 0
-3 -18 -24 -17 -16 -8 0
-3 -29 -16 -10 -24 -9 0
-3 -29 -23 -10 -17 -9 0
-3 -30 -17 -10 -23 -8 0
-3 -30 -24 -10 -16 -8 0
-8 -16 -10 -18 -30 -9 0
-8 -16 -11 -18 -24 -9 0
-8 -23 -10 -11 -30 -9 0
-8 -23 -18 -11 -17 -9 0
-8 -29 -11 -10 -24 -9 0
-8 -29 -18 -10 -17 -9 0
-1 -10 -19 -31 -36 -6 0
-1 -10 -19 -32 -36 -5 0
-1 -10 -20 -31 -32 -6 0
-1 -10 -20 -36 -32 -4 0
-1 -10 -21 -32 -31 -5 0
-1 -10 -21 -36 -31 -4 0
-1 -12 -19 -20 -36 -6 0
-1 -12 -19 -21 -36 -5 0
-1 -12 -31 -20 -21 -6 0
-1 -12 -31 -36 -21 -2 0
-1 -12 -32 -21 -20 -5 0
-1 -12 -32 -36 -20 -2 0
-1 -13 -20 -19 -32 -6 0
-1 -13 -20 -21 -32 -4 0
-1 -13 -31 -19 -21 -6 0
-1 -13 -31 -32 -21 -2 0
-1 -13 -36 -21 -19 -4 0
-1 -13 -36 -32 -19 -2 0
-1 -14 -21 -19 -31 -5 0
-1 -14 -21 -20 -31 -4 0
-1 -14 -32 -19 -20 -5 0
-1 -14 -32 -31 -20 -2 0
-1 -14 -36 -20 -19 -4 0
-1 -14 -36 -31 -19 -2 0
-2 -10 -12 -31 -36 -6 0
-2 -10 -12 -32 -36 -5 0
-2 -10 -13 -31 -32 -6 0
-2 -10 -13 -36 -32 -4 0
-2 -10 -14 -32 -31 -5 0
-2 -10 -14 -36 -31 -4 0
-2 -19 -12 -13 -36 -6 0
-2 -19 -12 -14 -36 -5 0
-2 -19 -31 -13 -14 -6 0
-2 -19 -32 -14 -13 -5 0
-2 -20 -13 -12 -32 -6 0
-2 -20 -13 -14 -32 -4 0
-2 -20 -31 -12 -14 -6 0
-2 -20 -36 -14 -12 -4 0
-2 -21 -14 -12 -31 -5 0
-2 -21 -14 -13 -31 -4 0
-2 -21 -32 -12 -13 -5 0
-2 -21 -36 -13 -12 -4 0
-4 -12 -10 -20 -36 -6 0
-4 -12 -10 -21 -36 -5 0
-4 -12 -13 -20 -21 -6 0
-4 -12 -14 -21 -20 -5 0
-4 -19 -10 -13 -36 -6 0
-4 -19 -10 -14 -36 -5 0
-4 -19 -20 -13 -14 -6 0
-4 -19 -21 -14 -13 -5 0
-4 -31 -13 -10 -21 -6 0
-4 -31 -20 -10 -14 -6 0
-4 -32 -14 -10 -20 -5 0
-4 -32 -21 -10 -13 -5 0
-5 -13 -10 -19 -32 -6 0
-5 -13 -12 -19 -21 -6 0
-5 -20 -10 -12 -32 -6 0
-5 -20 -19 -12 -14 -6 0
-5 -31 -12 -10 -21 -6 0
-5 -31 -19 -10 -14 -6 0
-1 -10 -19 -31 -37 -7 0
-1 -10 -19 -33 -37 -5 0
-1 -10 -20 -31 -33 -7 0
-1 -10 -20 -37 -33 -4 0
-1 -10 -22 -33 -31 -5 0
-1 -10 -22 -37 -31 -4 0
-1 -12 -19 -20 -37 -7 0
-1 -12 -19 -22 -37 -5 0
-1 -12 -31 -20 -22 -7 0
-1 -12 -31 -37 -22 -2 0
-1 -12 -33 -22 -20 -5 0
-1 -12 -33 -37 -20 -2 0
-1 -13 -20 -19 -33 -7 0
-1 -13 -20 -22 -33 -4 0
-1 -13 -31 -19 -22 -7 0
-1 -13 -31 -33 -22 -2 0
-1 -13 -37 -22 -19 -4 0
-1 -13 -37 -33 -19 -2 0
-1 -15 -22 -19 -31 -5 0
-1 -15 -22 -20 -31 -4 0
-1 -15 -33 -19 -20 -5 0
-1 -15 -33 -31 -20 -2 0
-1 -15 -37 -20 -19 -4 0
-1 -15 -37 -31 -19 -2 0
-2 -10 -12 -31 -37 -7 0
-2 -10 -12 -33 -37 -5 0
-2 -10 -13 -31 -33 -7 0
-2 -10 -13 -37 -33 -4 0
-2 -10 -15 -33 -31 -5 0
-2 -10 -15 -37 -31 -4 0
-2 -19 -12 -13 -37 -7 0
-2 -19 -12 -15 -37 -5 0
-2 -19 -31 -13 -15 -7 0
-2 -19 -33 -15 -13 -5 0
-2 -20 -13 -12 -33 -7 0
-2 -20 -13 -15 -33 -4 0
-2 -20 -31 -12 -15 -7 0
-2 -20 -37 -15 -12 -4 0
-2 -22 -15 -12 -31 -5 0
-2 -22 -15 -13 -31 -4 0
-2 -22 -33 -12 -13 -5 0
-2 -22 -37 -13 -12 -4 0
-4 -12 -10 -20 -37 -7 0
-4 -12 -10 -22 -37 -5 0
-4 -12 -13 -20 -22 -7 0
-4 -12 -15 -22 -20 -5 0
-4 -19 -10 -13 -37 -7 0
-4 -19 -10 -15 -37 -5 0
-4 -19 -20 -13 -15 -7 0
-4 -19 -22 -15 -13 -5 0
-4 -31 -13 -10 -22 -7 0
-4 -31 -20 -10 -15 -7 0
-4 -33 -15 -10 -20 -5 0
-4 -33 -22 -10 -13 -5 0
-5 -13 -10 -19 -33 -7 0
-5 -13 -12 -19 -22 -7 0
-5 -20 -10 -12 -33 -7 0
-5 -20 -19 -12 -15 -7 0
-5 -31 -12 -10 -22 -7 0
-5 -31 -19 -10 -15 -7 0
-1 -10 -19 -31 -38 -8 0
-1 -10 -19 -34 -38 -5 0
-1 -10 -20 -31 -34 -8 0
-1 -10 -20 -38 -34 -4 0
-1 -10 -23 -34 -31 -5 0
-1 -10 -23 -38 -31 -4 0
-1 -12 -19 -20 -38 -8 0
-1 -12 -19 -23 -38 -5 0
-1 -12 -31 -20 -23 -8 0
-1 -12 -31 -38 -23 -2 0
-1 -12 -34 -23 -20 -5 0
-1 -12 -34 -38 -20 -2 0
-1 -13 -20 -19 -34 -8 0
-1 -13 -20 -23 -34 -4 0
-1 -13 -31 -19 -23 -8 0
-1 -13 -31 -34 -23 -2 0
-1 -13 -38 -23 -19 -4 0
-1 -13 -38 -34 -19 -2 0
-1 -16 -23 -19 -31 -5 0
-1 -16 -23 -20 -31 -4 0
-1 -16 -34 -19 -20 -5 0
-1 -16 -34 -31 -20 -2 0
-1 -16 -38 -20 -19 -4 0
-1 -16 -38 -31 -19 -2 0
-2 -10 -12 -31 -38 -8 0
-2 -10 -12 -34 -38 -5 0
-2 -10 -13 -31 -34 -8 0
-2 -10 -13 -38 -34 -4 0
-2 -10 -16 -34 -31 -5 0
-2 -10 -16 -38 -31 -4 0
-2 -19 -12 -13 -38 -8 0
-2 -19 -12 -16 -38 -5 0
-2 -19 -31 -13 -16 -8 0
-2 -19 -34 -16 -13 -5 0
-2 -20 -13 -12 -34 -8 0
-2 -20 -13 -16 -34 -4 0
-2 -20 -31 -12 -16 -8 0
-2 -20 -38 -16 -12 -4 0
-2 -23 -16 -12 -31 -5 0
-2 -23 -16 -13 -31 -4 0
-2 -23 -34 -12 -13 -5 0
-2 -23 -38 -13 -12 -4 0
-4 -12 -10 -20 -38 -8 0
-4 -12 -10 -23 -38 -5 0
-4 -12 -13 -20 -23 -8 0
-4 -12 -16 -23 -20 -5 0
-4 -19 -10 -13 -38 -8 0
-4 -19 -10 -16 -38 -5 0
-4 -19 -20 -13 -16 -8 0
-4 -19 -23 -16 -13 -5 0
-4 -31 -13 -10 -23 -8 0
-4 -31 -20 -10 -16 -8 0
-4 -34 -16 -10 -20 -5 0
-4 -34 -23 -10 -13 -5 0
-5 -13 -10 -19 -34 -8 0
-5 -13 -12 -19 -23 -8 0
-5 -20 -10 -12 -34 -8 0
-5 -20 -19 -12 -16 -8 0
-5 -31 -12 -10 -23 -8 0
-5 -31 -19 -10 -16 -8 0
-1 -10 -19 -31 -39 -9 0
-1 -10 -19 -35 -39 -5 0
-1 -10 -20 -31 -35 -9 0
-1 -10 -20 -39 -35 -4 0
-1 -10 -24 -35 -31 -5 0
-1 -10 -24 -39 -31 -4 0
-1 -12 -19 -20 -39 -9 0
-1 -12 -19 -24 -39 -5 0
-1 -12 -31 -20 -24 -9 0
-1 -12 -31 -39 -24 -2 0
-1 -12 -35 -24 -20 -5 0
-1 -12 -35 -39 -20 -2 0
-1 -13 -20 -19 -35 -9 0
-1 -13 -20 -24 -35 -4 0
-1 -13 -31 -19 -24 -9 0
-1 -13 -31 -35 -24 -2 0
-1 -13 -39 -24 -19 -4 0
-1 -13 -39 -35 -19 -2 0
-1 -17 -24 -19 -31 -5 0
-1 -17 -24 -20 -31 -4 0
-1 -17 -35 -19 -20 -5 0
-1 -17 -35 -31 -20 -2 0
-1 -17 -39 -20 -19 -4 0
-1 -17 -39 -31 -19 -2 0
-2 -10 -12 -31 -39 -9 0
-2 -10 -12 -35 -39 -5 0
-2 -10 -13 -31 -35 -9 0
-2 -10 -13 -39 -35 -4 0
-2 -10 -17 -35 -31 -5 0
-2 -10 -17 -39 -31 -4 0
-2 -19 -12 -13 -39 -9 0
-2 -19 -12 -17 -39 -5 0
-2 -19 -31 -13 -17 -9 0
-2 -19 -35 -17 -13 -5 0
-2 -20 -13 -12 -35 -9 0
-2 -20 -13 -17 -35 -4 0
-2 -20 -31 -12 -17 -9 0
-2 -20 -39 -17 -12 -4 0
-2 -24 -17 -12 -31 -5 0
-2 -24 -17 -13 -31 -4 0
-2 -24 -35 -12 -13 -5 0
-2 -24 -39 -13 -12 -4 0
-4 -12 -10 -20 -39 -9 0
-4 -12 -10 -24 -39 -5 0
-4 -12 -13 -20 -24 -9 0
-4 -12 -17 -24 -20 -5 0
-4 -19 -10 -13 -39 -9 0
-4 -19 -10 -17 -39 -5 0
-4 -19 -20 -13 -17 -9 0
-4 -19 -24 -17 -13 -5 0
-4 -31 -13 -10 -24 -9 0
-4 -31 -20 -10 -17 -9 0
-4 -35 -17 -10 -20 -5 0
-4 -35 -24 -10 -13 -5 0
-5 -13 -10 -19 -35 -9 0
-5 -13 -12 -19 -24 -9 0
-5 -20 -10 -12 -35 -9 0
-5 -20 -19 -12 -17 -9 0
-5 -31 -12 -10 -24 -9 0
-5 -31 -19 -10 -17 -9 0
-1 -10 -19 -32 -40 -7 0
-1 -10 -19 -33 -40 -6 0
-1 -10 -21 -32 -33 -7 0
-1 -10 -21 -40 -33 -4 0
-1 -10 -22 -33 -32 -6 0
-1 -10 -22 -40 -32 -4 0
-1 -12 -19 -21 -40 -7 0
-1 -12 -19 -22 -40 -6 0
-1 -12 -32 -21 -22 -7 0
-1 -12 -32 -40 -22 -2 0
-1 -12 -33 -22 -21 -6 0
-1 -12 -33 -40 -21 -2 0
-1 -14 -21 -19 -33 -7 0
-1 -14 -21 -22 -33 -4 0
-1 -14 -32 -19 -22 -7 0
-1 -14 -32 -33 -22 -2 0
-1 -14 -40 -22 -19 -4 0
-1 -14 -40 -33 -19 -2 0
-1 -15 -22 -19 -32 -6 0
-1 -15 -22 -21 -32 -4 0
-1 -15 -33 -19 -21 -6 0
-1 -15 -33 -32 -21 -2 0
-1 -15 -40 -21 -19 -4 0
-1 -15 -40 -32 -19 -2 0
-2 -10 -12 -32 -40 -7 0
-2 -10 -12 -33 -40 -6 0
-2 -10 -14 -32 -33 -7 0
-2 -10 -14 -40 -33 -4 0
-2 -10 -15 -33 -32 -6 0
-2 -10 -15 -40 -32 -4 0
-2 -19 -12 -14 -40 -7 0
-2 -19 -12 -15 -40 -6 0
-2 -19 -32 -14 -15 -7 0
-2 -19 -33 -15 -14 -6 0
-2 -21 -14 -12 -33 -7 0
-2 -21 -14 -15 -33 -4 0
-2 -21 -32 -12 -15 -7 0
-2 -21 -40 -15 -12 -4 0
-2 -22 -15 -12 -32 -6 0
-2 -22 -15 -14 -32 -4 0
-2 -22 -33 -12 -14 -6 0
-2 -22 -40 -14 -12 -4 0
-4 -12 -10 -21 -40 -7 0
-4 -12 -10 -22 -40 -6 0
-4 -12 -14 -21 -22 -7 0
-4 -12 -15 -22 -21 -6 0
-4 -19 -10 -14 -40 -7 0
-4 -19 -10 -15 -40 -6 0
-4 -19 -21 -14 -15 -7 0
-4 -19 -22 -15 -14 -6 0
-4 -32 -14 -10 -22 -7 0
-4 -32 -21 -10 -15 -7 0
-4 -33 -15 -10 -21 -6 0
-4 -33 -22 -10 -14 -6 0
-6 -14 -10 -19 -33 -7 0
-6 -14 -12 -19 -22 -7 0
-6 -21 -10 -12 -33 -7 0
-6 -21 -19 -12 -15 -7 0
-6 -32 -12 -10 -22 -7 0
-6 -32 -19 -10 -15 -7 0
-1 -10 -19 -32 -41 -8 0
-1 -10 -19 -34 -41 -6 0
-1 -10 -21 -32 -34 -8 0
-1 -10 -21 -41 -34 -4 0
-1 -10 -23 -34 -32 -6 0
-1 -10 -23 -41 -32 -4 0
-1 -12 -19 -21 -41 -8 0
-1 -12 -19 -23 -41 -6 0
-1 -12 -32 -21 -23 -8 0
-1 -12 -32 -41 -23 -2 0
-1 -12 -34 -23 -21 -6 0
-1 -12 -34 -41 -21 -2 0
-1 -14 -21 -19 -34 -8 0
-1 -14 -21 -23 -34 -4 0
-1 -14 -32 -19 -23 -8 0
-1 -14 -32 -34 -23 -2 0
-1 -14 -41 -23 -19 -4 0
-1 -14 -41 -34 -19 -2 0
-1 -16 -23 -19 -32 -6 0
-1 -16 -23 -21 -32 -4 0
-1 -16 -34 -19 -21 -6 0
-1 -16 -34 -32 -21 -2 0
-1 -16 -41 -21 -19 -4 0
-1 -16 -41 -32 -19 -2 0
-2 -10 -12 -32 -41 -8 0
-2 -10 -12 -34 -41 -6 0
-2 -10 -14 -32 -34 -8 0
-2 -10 -14 -41 -34 -4 0
-2 -10 -16 -34 -32 -6 0
-2 -10 -16 -41 -32 -4 0
-2 -19 -12 -14 -41 -8 0
-2 -19 -12 -16 -41 -6 0
-2 -19 -32 -14 -16 -8 0
-2 -19 -34 -16 -14 -6 0
-2 -21 -14 -12 -34 -8 0
-2 -21 -14 -16 -34 -4 0
-2 -21 -32 -12 -16 -8 0
-2 -21 -41 -16 -12 -4 0
-2 -23 -16 -12 -32 -6 0
-2 -23 -16 -14 -32 -4 0
-2 -23 -34 -12 -14 -6 0
-2 -23 -41 -14 -12 -4 0
-4 -12 -10 -21 -41 -8 0
-4 -12 -10 -23 -41 -6 0
-4 -12 -14 -21 -23 -8 0
-4 -12 -16 -23 -21 -6 0
-4 -19 -10 -14 -41 -8 0
-4 -19 -10 -16 -41 -6 0
-4 -19 -21 -14 -16 -8 0
-4 -19 -23 -16 -14 -6 0
-4 -32 -14 -10 -23 -8 0
-4 -32 -21 -10 -16 -8 0
-4 -34 -16 -10 -21 -6 0
-4 -34 -23 -10 -14 -6 0
-6 -14 -10 -19 -34 -8 0
-6 -14 -12 -19 -23 -8 0
-6 -21 -10 -12 -34 -8 0
-6 -21 -19 -12 -16 -8 0
-6 -32 -12 -10 -23 -8 0
-6 -32 -19 -10 -16 -8 0
-1 -10 -19 -32 -42 -9 0
-1 -10 -19 -35 -42 -6 0
-1 -10 -21 -32 -35 -9 0
-1 -10 -21 -42 -35 -4 0
-1 -10 -24 -35 -32 -6 0
-1 -10 -24 -42 -32 -4 0
-1 -12 -19 -21 -42 -9 0
-1 -12 -19 -24 -42 -6 0
-1 -12 -32 -21 -24 -9 0
-1 -12 -32 -42 -24 -2 0
-1 -12 -35 -24 -21 -6 0
-1 -12 -35 -42 -21 -2 0
-1 -14 -21 -19 -35 -9 0
-1 -14 -21 -24 -35 -4 0
-1 -14 -32 -19 -24 -9 0
-1 -14 -32 -35 -24 -2 0
-1 -14 -42 -24 -19 -4 0
-1 -14 -42 -35 -19 -2 0
-1 -17 -24 -19 -32 -6 0
-1 -17 -24 -21 -32 -4 0
-1 -17 -35 -19 -21 -6 0
-1 -17 -35 -32 -21 -2 0
-1 -17 -42 -21 -19 -4 0
-1 -17 -42 -32 -19 -2 0
-2 -10 -12 -32 -42 -9 0
-2 -10 -12 -35 -42 -6 0
-2 -10 -14 -32 -35 -9 0
-2 -10 -14 -42 -35 -4 0
-2 -10 -17 -35 -32 -6 0
-2 -10 -17 -42 -32 -4 0
-2 -19 -12 -14 -42 -9 0
-2 -19 -12 -17 -42 -6 0
-2 -19 -32 -14 -17 -9 0
-2 -19 -35 -17 -14 -6 0
-2 -21 -14 -12 -35 -9 0
-2 -21 -14 -17 -35 -4 0
-2 -21 -32 -12 -17 -9 0
-2 -21 -42 -17 -12 -4 0
-2 -24 -17 -12 -32 -6 0
-2 -24 -17 -14 -32 -4 0
-2 -24 -35 -12 -14 -6 0
-2 -24 -42 -14 -12 -4 0
-4 -12 -10 -21 -42 -9 0
-4 -12 -10 -24 -42 -6 0
-4 -12 -14 -21 -24 -9 0
-4 -12 -17 -24 -21 -6 0
-4 -19 -10 -14 -42 -9 0
-4 -19 -10 -17 -42 -6 0
-4 -19 -21 -14 -17 -9 0
-4 -19 -24 -17 -14 -6 0
-4 -32 -14 -10 -24 -9 0
-4 -32 -21 -10 -17 -9 0
-4 -35 -17 -10 -21 -6 0
-4 -35 -24 -10 -14 -6 0
-6 -14 -10 -19 -35 -9 0
-6 -14 -12 -19 -24 -9 0
-6 -21 -10 -12 -35 -9 0
-6 -21 -19 -12 -17 -9 0
-6 -32 -12 -10 -24 -9 0
-6 -32 -19 -10 -17 -9 0
-1 -10 -19 -33 -43 -8 0
-1 -10 -19 -34 -43 -7 0
-1 -10 -22 -33 -34 -8 0
-1 -10 -22 -43 -34 -4 0
-1 -10 -23 -34 -33 -7 0
-1 -10 -23 -43 -33 -4 0
-1 -12 -19 -22 -43 -8 0
-1 -12 -19 -23 -43 -7 0
-1 -12 -33 -22 -23 -8 0
-1 -12 -33 -43 -23 -2 0
-1 -12 -34 -23 -22 -7 0
-1 -12 -34 -43 -22 -2 0
-1 -15 -22 -19 -34 -8 0
-1 -15 -22 -23 -34 -4 0
-1 -15 -33 -19 -23 -8 0
-1 -15 -33 -34 -23 -2 0
-1 -15 -43 -23 -19 -4 0
-1 -15 -43 -34 -19 -2 0
-1 -16 -23 -19 -33 -7 0
-1 -16 -23 -22 -33 -4 0
-1 -16 -34 -19 -22 -7 0
-1 -16 -34 -33 -22 -2 0
-1 -16 -43 -22 -19 -4 0
-1 -16 -43 -33 -19 -2 0
-2 -10 -12 -33 -43 -8 0
-2 -10 -12 -34 -43 -7 0
-2 -10 -15 -33 -34 -8 0
-2 -10 -15 -43 -34 -4 0
-2 -10 -16 -34 -33 -7 0
-2 -10 -16 -43 -33 -4 0
-2 -19 -12 -15 -43 -8 0
-2 -19 -12 -16 -43 -7 0
-2 -19 -33 -15 -16 -8 0
-2 -19 -34 -16 -15 -7 0
-2 -22 -15 -12 -34 -8 0
-2 -22 -15 -16 -34 -4 0
-2 -22 -33 -12 -16 -8 0
-2 -22 -43 -16 -12 -4 0
-2 -23 -16 -12 -33 -7 0
-2 -23 -16 -15 -33 -4 0
-2 -23 -34 -12 -15 -7 0
-2 -23 -43 -15 -12 -4 0
-4 -12 -10 -22 -43 -8 0
-4 -12 -10 -23 -43 -7 0
-4 -12 -15 -22 -23 -8 0
-4 -12 -16 -23 -22 -7 0
-4 -19 -10 -15 -43 -8 0
-4 -19 -10 -16 -43 -7 0
-4 -19 -22 -15 -16 -8 0
-4 -19 -23 -16 -15 -7 0
-4 -33 -15 -10 -23 -8 0
-4 -33 -22 -10 -16 -8 0
-4 -34 -16 -10 -22 -7 0
-4 -34 -23 -10 -15 -7 0
-7 -15 -10 -19 -34 -8 0
-7 -15 -12 -19 -23 -8 0
-7 -22 -10 -12 -34 -8 0
-7 -22 -19 -12 -16 -8 0
-7 -33 -12 -10 -23 -8 0
-7 -33 -19 -10 -16 -8 0
-1 -10 -19 -33 -44 -9 0
-1 -10 -19 -35 -44 -7 0
-1 -10 -22 -33 -35 -9 0
-1 -10 -22 -44 -35 -4 0
-1 -10 -24 -35 -33 -7 0
-1 -10 -24 -44 -33 -4 0
-1 -12 -19 -22 -44 -9 0
-1 -12 -19 -24 -44 -7 0
-1 -12 -33 -22 -24 -9 0
-1 -12 -33 -44 -24 -2 0
-1 -12 -35 -24 -22 -7 0
-1 -12 -35 -44 -22 -2 0
-1 -15 -22 -19 -35 -9 0
-1 -15 -22 -24 -35 -4 0
-1 -15 -33 -19 -24 -9 0
-1 -15 -33 -35 -24 -2 0
-1 -15 -44 -24 -19 -4 0
-1 -15 -44 -35 -19 -2 0
-1 -17 -24 -19 -33 -7 0
-1 -17 -24 -22 -33 -4 0
-1 -17 -35 -19 -22 -7 0
-1 -17 -35 -33 -22 -2 0
-1 -17 -44 -22 -19 -4 0
-1 -17 -44 -33 -19 -2 0
-2 -10 -12 -33 -44 -9 0
-2 -10 -12 -35 -44 -7 0
-2 -10 -15 -33 -35 -9 0
-2 -10 -15 -44 -35 -4 0
-2 -10 -17 -35 -33 -7 0
-2 -10 -17 -44 -33 -4 0
-2 -19 -12 -15 -44 -9 0
-2 -19 -12 -17 -44 -7 0
-2 -19 -33 -15 -17 -9 0
-2 -19 -35 -17 -15 -7 0
-2 -22 -15 -12 -35 -9 0
-2 -22 -15 -17 -35 -4 0
-2 -22 -33 -12 -17 -9 0
-2 -22 -44 -17 -12 -4 0
-2 -24 -17 -12 -33 -7 0
-2 -24 -17 -15 -33 -4 0
-2 -24 -35 -12 -15 -7 0
-2 -24 -44 -15 -12 -4 0
-4 -12 -10 -22 -44 -9 0
-4 -12 -10 -24 -44 -7 0
-4 -12 -15 -22 -24 -9 0
-4 -12 -17 -24 -22 -7 0
-4 -19 -10 -15 -44 -9 0
-4 -19 -10 -17 -44 -7 0
-4 -19 -22 -15 -17 -9 0
-4 -19 -24 -17 -15 -7 0
-4 -33 -15 -10 -24 -9 0
-4 -33 -22 -10 -17 -9 0
-4 -35 -17 -10 -22 -7 0
-4 -35 -24 -10 -15 -7 0
-7 -15 -10 -19 -35 -9 0
-7 -15 -12 -19 -24 -9 0
-7 -22 -10 -12 -35 -9 0
-7 -22 -19 -12 -17 -9 0
-7 -33 -12 -10 -24 -9 0
-7 -33 -19 -10 -17 -9 0
-1 -10 -19 -34 -45 -9 0
-1 -10 -19 -35 -45 -8 0
-1 -10 -23 -34 -35 -9 0
-1 -10 -23 -45 -35 -4 0
-1 -10 -24 -35 -34 -8 0
-1 -10 -24 -45 -34 -4 0
-1 -12 -19 -23 -45 -9 0
-1 -12 -19 -24 -45 -8 0
-1 -12 -34 -23 -24 -9 0
-1 -12 -34 -45 -24 -2 0
-1 -12 -35 -24 -23 -8 0
-1 -12 -35 -45 -23 -2 0
-1 -16 -23 -19 -35 -9 0
-1 -16 -23 -24 -35 -4 0
-1 -16 -34 -19 -24 -9 0
-1 -16 -34 -35 -24 -2 0
-1 -16 -45 -24 -19 -4 0
-1 -16 -45 -35 -19 -2 0
-1 -17 -24 -19 -34 -8 0
-1 -17 -24 -23 -34 -4 0
-1 -17 -35 -19 -23 -8 0
-1 -17 -35 -34 -23 -2 0
-1 -17 -45 -23 -19 -4 0
-1 -17 -45 -34 -19 -2 0
-2 -10 -12 -34 -45 -9 0
-2 -10 -12 -35 -45 -8 0
-2 -10 -16 -34 -35 -9 0
-2 -10 -16 -45 -35 -4 0
-2 -10 -17 -35 -34 -8 0
-2 -10 -17 -45 -34 -4 0
-2 -19 -12 -16 -45 -9 0
-2 -19 -12 -17 -45 -8 0
-2 -19 -34 -16 -17 -9 0
-2 -19 -35 -17 -16 -8 0
-2 -23 -16 -12 -35 -9 0
-2 -23 -16 -17 -35 -4 0
-2 -23 -34 -12 -17 -9 0
-2 -23 -45 -17 -12 -4 0
-2 -24 -17 -12 -34 -8 0
-2 -24 -17 -16 -34 -4 0
-2 -24 -35 -12 -16 -8 0
-2 -24 -45 -16 -12 -4 0
-4 -12 -10 -23 -45 -9 0
-4 -12 -10 -24 -45 -8 0
-4 -12 -16 -23 -24 -9 0
-4 -12 -17 -24 -23 -8 0
-4 -19 -10 -16 -45 -9 0
-4 -19 -10 -17 -45 -8 0
-4 -19 -23 -16 -17 -9 0
-4 -19 -24 -17 -16 -8 0
-4 -34 -16 -10 -24 -9 0
-4 -34 -23 -10 -17 -9 0
-4 -35 -17 -10 -23 -8 0
-4 -35 -24 -10 -16 -8 0
-8 -16 -10 -19 -35 -9 0
-8 -16 -12 -19 -24 -9 0
-8 -23 -10 -12 -35 -9 0
-8 -23 -19 -12 -17 -9 0
-8 -34 -12 -10 -24 -9 0
-8 -34 -19 -10 -17 -9 0
-1 -10 -20 -36 -40 -7 0
-1 -10 -20 -37 -40 -6 0
-1 -10 -21 -36 -37 -7 0
-1 -10 -21 -40 -37 -5 0
-1 -10 -22 -37 -36 -6 0
-1 -10 -22 -40 -36 -5 0
-1 -13 -20 -21 -40 -7 0
-1 -13 -20 -22 -40 -6 0
-1 -13 -36 -21 -22 -7 0
-1 -13 -36 -40 -22 -2 0
-1 -13 -37 -22 -21 -6 0
-1 -13 -37 -40 -21 -2 0
-1 -14 -21 -20 -37 -7 0
-1 -14 -21 -22 -37 -5 0
-1 -14 -36 -20 -22 -7 0
-1 -14 -36 -37 -22 -2 0
-1 -14 -40 -22 -20 -5 0
-1 -14 -40 -37 -20 -2 0
-1 -15 -22 -20 -36 -6 0
-1 -15 -22 -21 -36 -5 0
-1 -15 -37 -20 -21 -6 0
-1 -15 -37 -36 -21 -2 0
-1 -15 -40 -21 -20 -5 0
-1 -15 -40 -36 -20 -2 0
-2 -10 -13 -36 -40 -7 0
-2 -10 -13 -37 -40 -6 0
-2 -10 -14 -36 -37 -7 0
-2 -10 -14 -40 -37 -5 0
-2 -10 -15 -37 -36 -6 0
-2 -10 -15 -40 -36 -5 0
-2 -20 -13 -14 -40 -7 0
-2 -20 -13 -15 -40 -6 0
-2 -20 -36 -14 -15 -7 0
-2 -20 -37 -15 -14 -6 0
-2 -21 -14 -13 -37 -7 0
-2 -21 -14 -15 -37 -5 0
-2 -21 -36 -13 -15 -7 0
-2 -21 -40 -15 -13 -5 0
-2 -22 -15 -13 -36 -6 0
-2 -22 -15 -14 -36 -5 0
-2 -22 -37 -13 -14 -6 0
-2 -22 -40 -14 -13 -5 0
-5 -13 -10 -21 -40 -7 0
-5 -13 -10 -22 -40 -6 0
-5 -13 -14 -21 -22 -7 0
-5 -13 -15 -22 -21 -6 0
-5 -20 -10 -14 -40 -7 0
-5 -20 -10 -15 -40 -6 0
-5 -20 -21 -14 -15 -7 0
-5 -20 -22 -15 -14 -6 0
-5 -36 -14 -10 -22 -7 0
-5 -36 -21 -10 -15 -7 0
-5 -37 -15 -10 -21 -6 0
-5 -37 -22 -10 -14 -6 0
-6 -14 -10 -20 -37 -7 0
-6 -14 -13 -20 -22 -7 0
-6 -21 -10 -13 -37 -7 0
-6 -21 -20 -13 -15 -7 0
-6 -36 -13 -10 -22 -7 0
-6 -36 -20 -10 -15 -7 0
-1 -10 -20 -36 -41 -8 0
-1 -10 -20 -38 -41 -6 0
-1 -10 -21 -36 -38 -8 0
-1 -10 -21 -41 -38 -5 0
-1 -10 -23 -38 -36 -6 0
-1 -10 -23 -41 -36 -5 0
-1 -13 -20 -21 -41 -8 0
-1 -13 -20 -23 -41 -6 0
-1 -13 -36 -21 -23 -8 0
-1 -13 -36 -41 -23 -2 0
-1 -13 -38 -23 -21 -6 0
-1 -13 -38 -41 -21 -2 0
-1 -14 -21 -20 -38 -8 0
-1 -14 -21 -23 -38 -5 0
-1 -14 -36 -20 -23 -8 0
-1 -14 -36 -38 -23 -2 0
-1 -14 -41 -23 -20 -5 0
-1 -14 -41 -38 -20 -2 0
-1 -16 -23 -20 -36 -6 0
-1 -16 -23 -21 -36 -5 0
-1 -16 -38 -20 -21 -6 0
-1 -16 -38 -36 -21 -2 0
-1 -16 -41 -21 -20 -5 0
-1 -16 -41 -36 -20 -2 0
-2 -10 -13 -36 -41 -8 0
-2 -10 -13 -38 -41 -6 0
-2 -10 -14 -36 -38 -8 0
-2 -10 -14 -41 -38 -5 0
-2 -10 -16 -38 -36 -6 0
-2 -10 -16 -41 -36 -5 0
-2 -20 -13 -14 -41 -8 0
-2 -20 -13 -16 -41 -6 0
-2 -20 -36 -14 -16 -8 0
-2 -20 -38 -16 -14 -6 0
-2 -21 -14 -13 -38 -8 0
-2 -21 -14 -16 -38 -5 0
-2 -21 -36 -13 -16 -8 0
-2 -21 -41 -16 -13 -5 0
-2 -23 -16 -13 -36 -6 0
-2 -23 -16 -14 -36 -5 0
-2 -23 -38 -13 -14 -6 0
-2 -23 -41 -14 -13 -5 0
-5 -13 -10 -21 -41 -8 0
-5 -13 -10 -23 -41 -6 0
-5 -13 -14 -21 -23 -8 0
-5 -13 -16 -23 -21 -6 0
-5 -20 -10 -14 -41 -8 0
-5 -20 -10 -16 -41 -6 0
-5 -20 -21 -14 -16 -8 0
-5 -20 -23 -16 -14 -6 0
-5 -36 -14 -10 -23 -8 0
-5 -36 -21 -10 -16 -8 0
-5 -38 -16 -10 -21 -6 0
-5 -38 -23 -10 -14 -6 0
-6 -14 -10 -20 -38 -8 0
-6 -14 -13 -20 -23 -8 0
-6 -21 -10 -13 -38 -8 0
-6 -21 -20 -13 -16 -8 0
-6 -36 -13 -10 -23 -8 0
-6 -36 -20 -10 -16 -8 0
-1 -10 -20 -36 -42 -9 0
-1 -10 -20 -39 -42 -6 0
-1 -10 -21 -36 -39 -9 0
-1 -10 -21 -42 -39 -5 0
-1 -10 -24 -39 -36 -6 0
-1 -10 -24 -42 -36 -5 0
-1 -13 -20 -21 -42 -9 0
-1 -13 -20 -24 -42 -6 0
-1 -13 -36 -21 -24 -9 0
-1 -13 -36 -42 -24 -2 0
-1 -13 -39 -24 -21 -6 0
-1 -13 -39 -42 -21 -2 0
-1 -14 -21 -20 -39 -9 0
-1 -14 -21 -24 -39 -5 0
-1 -14 -36 -20 -24 -9 0
-1 -14 -36 -39 -24 -2 0
-1 -14 -42 -24 -20 -5 0
-1 -14 -42 -39 -20 -2 0
-1 -17 -24 -20 -36 -6 0
-1 -17 -24 -21 -36 -5 0
-1 -17 -39 -20 -21 -6 0
-1 -17 -39 -36 -21 -2 0
-1 -17 -42 -21 -20 -5 0
-1 -17 -42 -36 -20 -2 0
-2 -10 -13 -36 -42 -9 0
-2 -10 -13 -39 -42 -6 0
-2 -10 -14 -36 -39 -9 0
-2 -10 -14 -42 -39 -5 0
-2 -10 -17 -39 -36 -6 0
-2 -10 -17 -42 -36 -5 0
-2 -20 -13 -14 -42 -9 0
-2 -20 -13 -17 -42 -6 0
-2 -20 -36 -14 -17 -9 0
-2 -20 -39 -17 -14 -6 0
-2 -21 -14 -13 -39 -9 0
-2 -21 -14 -17 -39 -5 0
-2 -21 -36 -13 -17 -9 0
-2 -21 -42 -17 -13 -5 0
-2 -24 -17 -13 -36 -6 0
-2 -24 -17 -14 -36 -5 0
-2 -24 -39 -13 -14 -6 0
-2 -24 -42 -14 -13 -5 0
-5 -13 -10 -21 -42 -9 0
-5 -13 -10 -24 -42 -6 0
-5 -13 -14 -21 -24 -9 0
-5 -13 -17 -24 -21 -6 0
-5 -20 -10 -14 -42 -9 0
-5 -20 -10 -17 -42 -6 0
-5 -20 -21 -14 -17 -9 0
-5 -20 -24 -17 -14 -6 0
-5 -36 -14 -10 -24 -9 0
-5 -36 -21 -10 -17 -9 0
-5 -39 -17 -10 -21 -6 0
-5 -39 -24 -10 -14 -6 0
-6 -14 -10 -20 -39 -9 0
-6 -14 -13 -20 -24 -9 0
-6 -21 -10 -13 -39 -9 0
-6 -21 -20 -13 -17 -9 0
-6 -36 -13 -10 -24 -9 0
-6 -36 -20 -10 -17 -9 0
-1 -10 -20 -37 -43 -8 0
-1 -10 -20 -38 -43 -7 0
-1 -10 -22 -37 -38 -8 0
-1 -10 -22 -43 -38 -5 0
-1 -10 -23 -38 -37 -7 0
-1 -10 -23 -43 -37 -5 0
-1 -13 -20 -22 -43 -8 0
-1 -13 -20 -23 -43 -7 0
-1 -13 -37 -22 -23 -8 0
-1 -13 -37 -43 -23 -2 0
-1 -13 -38 -23 -22 -7 0
-1 -13 -38 -43 -22 -2 0
-1 -15 -22 -20 -38 -8 0
-1 -15 -22 -23 -38 -5 0
-1 -15 -37 -20 -23 -8 0
-1 -15 -37 -38 -23 -2 0
-1 -15 -43 -23 -20 -5 0
-1 -15 -43 -38 -20 -2 0
-1 -16 -23 -20 -37 -7 0
-1 -16 -23 -22 -37 -5 0
-1 -16 -38 -20 -22 -7 0
-1 -16 -38 -37 -22 -2 0
-1 -16 -43 -22 -20 -5 0
-1 -16 -43 -37 -20 -2 0
-2 -10 -13 -37 -43 -8 0
-2 -10 -13 -38 -43 -7 0
-2 -10 -15 -37 -38 -8 0
-2 -10 -15 -43 -38 -5 0
-2 -10 -16 -38 -37 -7 0
-2 -10 -16 -43 -37 -5 0
-2 -20 -13 -15 -43 -8 0
-2 -20 -13 -16 -43 -7 0
-2 -20 -37 -15 -16 -8 0
-2 -20 -38 -16 -15 -7 0
-2 -22 -15 -13 -38 -8 0
-2 -22 -15 -16 -38 -5 0
-2 -22 -37 -13 -16 -8 0
-2 -22 -43 -16 -13 -5 0
-2 -23 -16 -13 -37 -7 0
-2 -23 -16 -15 -37 -5 0
-2 -23 -38 -13 -15 -7 0
-2 -23 -43 -15 -13 -5 0
-5 -13 -10 -22 -43 -8 0
-5 -13 -10 -23 -43 -7 0
-5 -13 -15 -22 -23 -8 0
-5 -13 -16 -23 -22 -7 0
-5 -20 -10 -15 -43 -8 0
-5 -20 -10 -16 -43 -7 0
-5 -20 -22 -15 -16 -8 0
-5 -20 -23 -16 -15 -7 0
-5 -37 -15 -10 -23 -8 0
-5 -37 -22 -10 -16 -8 0
-5 -38 -16 -10 -22 -7 0
-5 -38 -23 -10 -15 -7 0
-7 -15 -10 -20 -38 -8 0
-7 -15 -13 -20 -23 -8 0
-7 -22 -10 -13 -38 -8 0
-7 -22 -20 -13 -16 -8 0
-7 -37 -13 -10 -23 -8 0
-7 -37 -20 -10 -16 -8 0
-1 -10 -20 -37 -44 -9 0
-1 -10 -20 -39 -44 -7 0
-1 -10 -22 -37 -39 -9 0
-1 -10 -22 -44 -39 -5 0
-1 -10 -24 -39 -37 -7 0
-1 -10 -24 -44 -37 -5 0
-1 -13 -20 -22 -44 -9 0
-1 -13 -20 -24 -44 -7 0
-1 -13 -37 -22 -24 -9 0
-1 -13 -37 -44 -24 -2 0
-1 -13 -39 -24 -22 -7 0
-1 -13 -39 -44 -22 -2 0
-1 -15 -22 -20 -39 -9 0
-1 -15 -22 -24 -39 -5 0
-1 -15 -37 -20 -24 -9 0
-1 -15 -37 -39 -24 -2 0
-1 -15 -44 -24 -20 -5 0
-1 -15 -44 -39 -20 -2 0
-1 -17 -24 -20 -37 -7 0
-1 -17 -24 -22 -37 -5 0
-1 -17 -39 -20 -22 -7 0
-1 -17 -39 -37 -22 -2 0
-1 -17 -44 -22 -20 -5 0
-1 -17 -44 -37 -20 -2 0
-2 -10 -13 -37 -44 -9 0
-2 -10 -13 -39 -44 -7 0
-2 -10 -15 -37 -39 -9 0
-2 -10 -15 -44 -39 -5 0
-2 -10 -17 -39 -37 -7 0
-2 -10 -17 -44 -37 -5 0
-2 -20 -13 -15 -44 -9 0
-2 -20 -13 -17 -44 -7 0
-2 -20 -37 -15 -17 -9 0
-2 -20 -39 -17 -15 -7 0
-2 -22 -15 -13 -39 -9 0
-2 -22 -15 -17 -39 -5 0
-2 -22 -37 -13 -17 -9 0
-2 -22 -44 -17 -13 -5 0
-2 -24 -17 -13 -37 -7 0
-2 -24 -17 -15 -37 -5 0
-2 -24 -39 -13 -15 -7 0
-2 -24 -44 -15 -13 -5 0
-5 -13 -10 -22 -44 -9 0
-5 -13 -10 -24 -44 -7 0
-5 -13 -15 -22 -24 -9 0
-5 -13 -17 -24 -22 -7 0
-5 -20 -10 -15 -44 -9 0
-5 -20 -10 -17 -44 -7 0
-5 -20 -22 -15 -17 -9 0
-5 -20 -24 -17 -15 -7 0
-5 -37 -15 -10 -24 -9 0
-5 -37 -22 -10 -17 -9 0
-5 -39 -17 -10 -22 -7 0
-5 -39 -24 -10 -15 -7 0
-7 -15 -10 -20 -39 -9 0
-7 -15 -13 -20 -24 -9 0
-7 -22 -10 -13 -39 -9 0
-7 -22 -20 -13 -17 -9 0
-7 -37 -13 -10 -24 -9 0
-7 -37 -20 -10 -17 -9 0
-1 -10 -20 -38 -45 -9 0
-1 -10 -20 -39 -45 -8 0
-1 -10 -23 -38 -39 -9 0
-1 -10 -23 -45 -39 -5 0
-1 -10 -24 -39 -38 -8 0
-1 -10 -24 -45 -38 -5 0
-1 -13 -20 -23 -45 -9 0
-1 -13 -20 -24 -45 -8 0
-1 -13 -38 -23 -24 -9 0
-1 -13 -38 -45 -24 -2 0
-1 -13 -39 -24 -23 -8 0
-1 -13 -39 -45 -23 -2 0
-1 -16 -23 -20 -39 -9 0
-1 -16 -23 -24 -39 -5 0
-1 -16 -38 -20 -24 -9 0
-1 -16 -38 -39 -24 -2 0
-1 -16 -45 -24 -20 -5 0
-1 -16 -45 -39 -20 -2 0
-1 -17 -24 -20 -38 -8 0
-1 -17 -24 -23 -38 -5 0
-1 -17 -39 -20 -23 -8 0
-1 -17 -39 -38 -23 -2 0
-1 -17 -45 -23 -20 -5 0
-1 -17 -45 -38 -20 -2 0
-2 -10 -13 -38 -45 -9 0
-2 -10 -13 -39 -45 -8 0
-2 -10 -16 -38 -39 -9 0
-2 -10 -16 -45 -39 -5 0
-2 -10 -17 -39 -38 -8 0
-2 -10 -17 -45 -38 -5 0
-2 -20 -13 -16 -45 -9 0
-2 -20 -13 -17 -45 -8 0
-2 -20 -38 -16 -17 -9 0
-2 -20 -39 -17 -16 -8 0
-2 -23 -16 -13 -39 -9 0
-2 -23 -16 -17 -39 -5 0
-2 -23 -38 -13 -17 -9 0
-2 -23 -45 -17 -13 -5 0
-2 -24 -17 -13 -38 -8 0
-2 -24 -17 -16 -38 -5 0
-2 -24 -39 -13 -16 -8 0
-2 -24 -45 -16 -13 -5 0
-5 -13 -10 -23 -45 -9 0
-5 -13 -10 -24 -45 -8 0
-5 -13 -16 -23 -24 -9 0
-5 -13 -17 -24 -23 -8 0
-5 -20 -10 -16 -45 -9 0
-5 -20 -10 -17 -45 -8 0
-5 -20 -23 -16 -17 -9 0
-5 -20 -24 -17 -16 -8 0
-5 -38 -16 -10 -24 -9 0
-5 -38 -23 -10 -17 -9 0
-5 -39 -17 -10 -23 -8 0
-5 -39 -24 -10 -16 -8 0
-8 -16 -10 -20 -39 -9 0
-8 -16 -13 -20 -24 -9 0
-8 -23 -10 -13 -39 -9 0
-8 -23 -20 -13 -17 -9 0
-8 -38 -13 -10 -24 -9 0
-8 -38 -20 -10 -17 -9 0
-1 -10 -21 -40 -43 -8 0
-1 -10 -21 -41 -43 -7 0
-1 -10 -22 -40 -41 -8 0
-1 -10 -22 -43 -41 -6 0
-1 -10 -23 -41 -40 -7 0
-1 -10 -23 -43 -40 -6 0
-1 -14 -21 -22 -43 -8 0
-1 -14 -21 -23 -43 -7 0
-1 -14 -40 -22 -23 -8 0
-1 -14 -40 -43 -23 -2 0
-1 -14 -41 -23 -22 -7 0
-1 -14 -41 -43 -22 -2 0
-1 -15 -22 -21 -41 -8 0
-1 -15 -22 -23 -41 -6 0
-1 -15 -40 -21 -23 -8 0
-1 -15 -40 -41 -23 -2 0
-1 -15 -43 -23 -21 -6 0
-1 -15 -43 -41 -21 -2 0
-1 -16 -23 -21 -40 -7 0
-1 -16 -23 -22 -40 -6 0
-1 -16 -41 -21 -22 -7 0
-1 -16 -41 -40 -22 -2 0
-1 -16 -43 -22 -21 -6 0
-1 -16 -43 -40 -21 -2 0
-2 -10 -14 -40 -43 -8 0
-2 -10 -14 -41 -43 -7 0
-2 -10 -15 -40 -41 -8 0
-2 -10 -15 -43 -41 -6 0
-2 -10 -16 -41 -40 -7 0
-2 -10 -16 -43 -40 -6 0
-2 -21 -14 -15 -43 -8 0
-2 -21 -14 -16 -43 -7 0
-2 -21 -40 -15 -16 -8 0
-2 -21 -41 -16 -15 -7 0
-2 -22 -15 -14 -41 -8 0
-2 -22 -15 -16 -41 -6 0
-2 -22 -40 -14 -16 -8 0
-2 -22 -43 -16 -14 -6 0
-2 -23 -16 -14 -40 -7 0
-2 -23 -16 -15 -40 -6 0
-2 -23 -41 -14 -15 -7 0
-2 -23 -43 -15 -14 -6 0
-6 -14 -10 -22 -43 -8 0
-6 -14 -10 -23 -43 -7 0
-6 -14 -15 -22 -23 -8 0
-6 -14 -16 -23 -22 -7 0
-6 -21 -10 -15 -43 -8 0
-6 -21 -10 -16 -43 -7 0
-6 -21 -22 -15 -16 -8 0
-6 -21 -23 -16 -15 -7 0
-6 -40 -15 -10 -23 -8 0
-6 -40 -22 -10 -16 -8 0
-6 -41 -16 -10 -22 -7 0
-6 -41 -23 -10 -15 -7 0
-7 -15 -10 -21 -41 -8 0
-7 -15 -14 -21 -23 -8 0
-7 -22 -10 -14 -41 -8 0
-7 -22 -21 -14 -16 -8 0
-7 -40 -14 -10 -23 -8 0
-7 -40 -21 -10 -16 -8 0
-1 -10 -21 -40 -44 -9 0
-1 -10 -21 -42 -44 -7 0
-1 -10 -22 -40 -42 -9 0
-1 -10 -22 -44 -42 -6 0
-1 -10 -24 -42 -40 -7 0
-1 -10 -24 -44 -40 -6 0
-1 -14 -21 -22 -44 -9 0
-1 -14 -21 -24 -44 -7 0
-1 -14 -40 -22 -24 -9 0
-1 -14 -40 -44 -24 -2 0
-1 -14 -42 -24 -22 -7 0
-1 -14 -42 -44 -22 -2 0
-1 -15 -22 -21 -42 -9 0
-1 -15 -22 -24 -42 -6 0
-1 -15 -40 -21 -24 -9 0
-1 -15 -40 -42 -24 -2 0
-1 -15 -44 -24 -21 -6 0
-1 -15 -44 -42 -21 -2 0
-1 -17 -24 -21 -40 -7 0
-1 -17 -24 -22 -40 -6 0
-1 -17 -42 -21 -22 -7 0
-1 -17 -42 -40 -22 -2 0
-1 -17 -44 -22 -21 -6 0
-1 -17 -44 -40 -21 -2 0
-2 -10 -14 -40 -44 -9 0
-2 -10 -14 -42 -44 -7 0
-2 -10 -15 -40 -42 -9 0
-2 -10 -15 -44 -42 -6 0
-2 -10 -17 -42 -40 -7 0
-2 -10 -17 -44 -40 -6 0
-2 -21 -14 -15 -44 -9 0
-2 -21 -14 -17 -44 -7 0
-2 -21 -40 -15 -17 -9 0
-2 -21 -42 -17 -15 -7 0
-2 -22 -15 -14 -42 -9 0
-2 -22 -15 -17 -42 -6 0
-2 -22 -40 -14 -17 -9 0
-2 -22 -44 -17 -14 -6 0
-2 -24 -17 -14 -40 -7 0
-2 -24 -17 -15 -40 -6 0
-2 -24 -42 -14 -15 -7 0
-2 -24 -44 -15 -14 -6 0
-6 -14 -10 -22 -44 -9 0
-6 -14 -10 -24 -44 -7 0
-6 -14 -15 -22 -24 -9 0
-6 -14 -17 -24 -22 -7 0
-6 -21 -10 -15 -44 -9 0
-6 -21 -10 -17 -44 -7 0
-6 -21 -22 -15 -17 -9 0
-6 -21 -24 -17 -15 -7 0
-6 -40 -15 -10 -24 -9 0
-6 -40 -22 -10 -17 -9 0
-6 -42 -17 -10 -22 -7 0
-6 -42 -24 -10 -15 -7 0
-7 -15 -10 -21 -42 -9 0
-7 -15 -14 -21 -24 -9 0
-7 -22 -10 -14 -42 -9 0
-7 -22 -21 -14 -17 -9 0
-7 -40 -14 -10 -24 -9 0
-7 -40 -21 -10 -17 -9 0
-1 -10 -21 -41 -45 -9 0
-1 -10 -21 -42 -45 -8 0
-1 -10 -23 -41 -42 -9 0
-1 -10 -23 -45 -42 -6 0
-1 -10 -24 -42 -41 -8 0
-1 -10 -24 -45 -41 -6 0
-1 -14 -21 -23 -45 -9 0
-1 -14 -21 -24 -45 -8 0
-1 -14 -41 -23 -24 -9 0
-1 -14 -41 -45 -24 -2 0
-1 -14 -42 -24 -23 -8 0
-1 -14 -42 -45 -23 -2 0
-1 -16 -23 -21 -42 -9 0
-1 -16 -23 -24 -42 -6 0
-1 -16 -41 -21 -24 -9 0
-1 -16 -41 -42 -24 -2 0
-1 -16 -45 -24 -21 -6 0
-1 -16 -45 -42 -21 -2 0
-1 -17 -24 -21 -41 -8 0
-1 -17 -24 -23 -41 -6 0
-1 -17 -42 -21 -23 -8 0
-1 -17 -42 -41 -23 -2 0
-1 -17 -45 -23 -21 -6 0
-1 -17 -45 -41 -21 -2 0
-2 -10 -14 -41 -45 -9 0
-2 -10 -14 -42 -45 -8 0
-2 -10 -16 -41 -42 -9 0
-2 -10 -16 -45 -42 -6 0
-2 -10 -17 -42 -41 -8 0
-2 -10 -17 -45 -41 -6 0
-2 -21 -14 -16 -45 -9 0
-2 -21 -14 -17 -45 -8 0
-2 -21 -41 -16 -17 -9 0
-2 -21 -42 -17 -16 -8 0
-2 -23 -16 -14 -42 -9 0
-2 -23 -16 -17 -42 -6 0
-2 -23 -41 -14 -17 -9 0
-2 -23 -45 -17 -14 -6 0
-2 -24 -17 -14 -41 -8 0
-2 -24 -17 -16 -41 -6 0
-2 -24 -42 -14 -16 -8 0
-2 -24 -45 -16 -14 -6 0
-6 -14 -10 -23 -45 -9 0
-6 -14 -10 -24 -45 -8 0
-6 -14 -16 -23 -24 -9 0
-6 -14 -17 -24 -23 -8 0
-6 -21 -10 -16 -45 -9 0
-6 -21 -10 -17 -45 -8 0
-6 -21 -23 -16 -17 -9 0
-6 -21 -24 -17 -16 -8 0
-6 -41 -16 -10 -24 -9 0
-6 -41 -23 -10 -17 -9 0
-6 -42 -17 -10 -23 -8 0
-6 -42 -24 -10 -16 -8 0
-8 -16 -10 -21 -42 -9 0
-8 -16 -14 -21 -24 -9 0
-8 -23 -10 -14 -42 -9 0
-8 -23 -21 -14 -17 -9 0
-8 -41 -14 -10 -24 -9 0
-8 -41 -21 -10 -17 -9 0
-1 -10 -22 -43 -45 -9 0
-1 -10 -22 -44 -45 -8 0
-1 -10 -23 -43 -44 -9 0
-1 -10 -23 -45 -44 -7 0
-1 -10 -24 -44 -43 -8 0
-1 -10 -24 -45 -43 -7 0
-1 -15 -22 -23 -45 -9 0
-1 -15 -22 -24 -45 -8 0
-1 -15 -43 -23 -24 -9 0
-1 -15 -43 -45 -24 -2 0
-1 -15 -44 -24 -23 -8 0
-1 -15 -44 -45 -23 -2 0
-1 -16 -23 -22 -44 -9 0
-1 -16 -23 -24 -44 -7 0
-1 -16 -43 -22 -24 -9 0
-1 -16 -43 -44 -24 -2 0
-1 -16 -45 -24 -22 -7 0
-1 -16 -45 -44 -22 -2 0
-1 -17 -24 -22 -43 -8 0
-1 -17 -24 -23 -43 -7 0
-1 -17 -44 -22 -23 -8 0
-1 -17 -44 -43 -23 -2 0
-1 -17 -45 -23 -22 -7 0
-1 -17 -45 -43 -22 -2 0
-2 -10 -15 -43 -45 -9 0
-2 -10 -15 -44 -45 -8 0
-2 -10 -16 -43 -44 -9 0
-2 -10 -16 -45 -44 -7 0
-2 -10 -17 -44 -43 -8 0
-2 -10 -17 -45 -43 -7 0
-2 -22 -15 -16 -45 -9 0
-2 -22 -15 -17 -45 -8 0
-2 -22 -43 -16 -17 -9 0
-2 -22 -44 -17 -16 -8 0
-2 -23 -16 -15 -44 -9 0
-2 -23 -16 -17 -44 -7 0
-2 -23 -43 -15 -17 -9 0
-2 -23 -45 -17 -15 -7 0
-2 -24 -17 -15 -43 -8 0
-2 -24 -17 -16 -43 -7 0
-2 -24 -44 -15 -16 -8 0
-2 -24 -45 -16 -15 -7 0
-7 -15 -10 -23 -45 -9 0
-7 -15 -10 -24 -45 -8 0
-7 -15 -16 -23 -24 -9 0
-7 -15 -17 -24 -23 -8 0
-7 -22 -10 -16 -45 -9 0
-7 -22 -10 -17 -45 -8 0
-7 -22 -23 -16 -17 -9 0
-7 -22 -24 -17 -16 -8 0
-7 -43 -16 -10 -24 -9 0
-7 -43 -23 -10 -17 -9 0
-7 -44 -17 -10 -23 -8 0
-7 -44 -24 -10 -16 -8 0
-8 -16 -10 -22 -44 -9 0
-8 -16 -15 -22 -24 -9 0
-8 -23 -10 -15 -44 -9 0
-8 -23 -22 -15 -17 -9 0
-8 -43 -15 -10 -24 -9 0
-8 -43 -22 -10 -17 -9 0
-1 -11 -25 -31 -36 -6 0
-1 -11 -25 -32 -36 -5 0
-1 -11 -26 -31 -32 -6 0
-1 -11 -26 -36 -32 -4 0
-1 -11 -27 -32 -31 -5 0
-1 -11 -27 -36 -31 -4 0
-1 -12 -25 -26 -36 -6 0
-1 -12 -25 -27 -36 -5 0
-1 -12 -31 -26 -27 -6 0
-1 -12 -31 -36 -27 -3 0
-1 -12 -32 -27 -26 -5 0
-1 -12 -32 -36 -26 -3 0
-1 -13 -26 -25 -32 -6 0
-1 -13 -26 -27 -32 -4 0
-1 -13 -31 -25 -27 -6 0
-1 -13 -31 -32 -27 -3 0
-1 -13 -36 -27 -25 -4 0
-1 -13 -36 -32 -25 -3 0
-1 -14 -27 -25 -31 -5 0
-1 -14 -27 -26 -31 -4 0
-1 -14 -32 -25 -26 -5 0
-1 -14 -32 -31 -26 -3 0
-1 -14 -36 -26 -25 -4 0
-1 -14 -36 -31 -25 -3 0
-3 -11 -12 -31 -36 -6 0
-3 -11 -12 -32 -36 -5 0
-3 -11 -13 -31 -32 -6 0
-3 -11 -13 -36 -32 -4 0
-3 -11 -14 -32 -31 -5 0
-3 -11 -14 -36 -31 -4 0
-3 -25 -12 -13 -36 -6 0
-3 -25 -12 -14 -36 -5 0
-3 -25 -31 -13 -14 -6 0
-3 -25 -32 -14 -13 -5 0
-3 -26 -13 -12 -32 -6 0
-3 -26 -13 -14 -32 -4 0
-3 -26 -31 -12 -14 -6 0
-3 -26 -36 -14 -12 -4 0
-3 -27 -14 -12 -31 -5 0
-3 -27 -14 -13 -31 -4 0
-3 -27 -32 -12 -13 -5 0
-3 -27 -36 -13 -12 -4 0
-4 -12 -11 -26 -36 -6 0
-4 -12 -11 -27 -36 -5 0
-4 -12 -13 -26 -27 -6 0
-4 -12 -14 -27 -26 -5 0
-4 -25 -11 -13 -36 -6 0
-4 -25 -11 -14 -36 -5 0
-4 -25 -26 -13 -14 -6 0
-4 -25 -27 -14 -13 -5 0
-4 -31 -13 -11 -27 -6 0
-4 -31 -26 -11 -14 -6 0
-4 -32 -14 -11 -26 -5 0
-4 -32 -27 -11 -13 -5 0
-5 -13 -11 -25 -32 -6 0
-5 -13 -12 -25 -27 -6 0
-5 -26 -11 -12 -32 -6 0
-5 -26 -25 -12 -14 -6 0
-5 -31 -12 -11 -27 -6 0
-5 -31 -25 -11 -14 -6 0
-1 -11 -25 -31 -37 -7 0
-1 -11 -25 -33 -37 -5 0
-1 -11 -26 -31 -33 -7 0
-1 -11 -26 -37 -33 -4 0
-1 -11 -28 -33 -31 -5 0
-1 -11 -28 -37 -31 -4 0
-1 -12 -25 -26 -37 -7 0
-1 -12 -25 -28 -37 -5 0
-1 -12 -31 -26 -28 -7 0
-1 -12 -31 -37 -28 -3 0
-1 -12 -33 -28 -26 -5 0
-1 -12 -33 -37 -26 -3 0
-1 -13 -26 -25 -33 -7 0
-1 -13 -26 -28 -33 -4 0
-1 -13 -31 -25 -28 -7 0
-1 -13 -31 -33 -28 -3 0
-1 -13 -37 -28 -25 -4 0
-1 -13 -37 -33 -25 -3 0
-1 -15 -28 -25 -31 -5 0
-1 -15 -28 -26 -31 -4 0
-1 -15 -33 -25 -26 -5 0
-1 -15 -33 -31 -26 -3 0
-1 -15 -37 -26 -25 -4 0
-1 -15 -37 -31 -25 -3 0
-3 -11 -12 -31 -37 -7 0
-3 -11 -12 -33 -37 -5 0
-3 -11 -13 -31 -33 -7 0
-3 -11 -13 -37 -33 -4 0
-3 -11 -15 -33 -31 -5 0
-3 -11 -15 -37 -31 -4 0
-3 -25 -12 -13 -37 -7 0
-3 -25 -12 -15 -37 -5 0
-3 -25 -31 -13 -15 -7 0
-3 -25 -33 -15 -13 -5 0
-3 -26 -13 -12 -33 -7 0
-3 -26 -13 -15 -33 -4 0
-3 -26 -31 -12 -15 -7 0
-3 -26 -37 -15 -12 -4 0
-3 -28 -15 -12 -31 -5 0
-3 -28 -15 -13 -31 -4 0
-3 -28 -33 -12 -13 -5 0
-3 -28 -37 -13 -12 -4 0
-4 -12 -11 -26 -37 -7 0
-4 -12 -11 -28 -37 -5 0
-4 -12 -13 -26 -28 -7 0
-4 -12 -15 -28 -26 -5 0
-4 -25 -11 -13 -37 -7 0
-4 -25 -11 -15 -37 -5 0
-4 -25 -26 -13 -15 -7 0
-4 -25 -28 -15 -13 -5 0
-4 -31 -13 -11 -28 -7 0
-4 -31 -26 -11 -15 -7 0
-4 -33 -15 -11 -26 -5 0
-4 -33 -28 -11 -13 -5 0
-5 -13 -11 -25 -33 -7 0
-5 -13 -12 -25 -28 -7 0
-5 -26 -11 -12 -33 -7 0
-5 -26 -25 -12 -15 -7 0
-5 -31 -12 -11 -28 -7 0
-5 -31 -25 -11 -15 -7 0
-1 -11 -25 -31 -38 -8 0
-1 -11 -25 -34 -38 -5 0
-1 -11 -26 -31 -34 -8 0
-1 -11 -26 -38 -34 -4 0
-1 -11 -29 -34 -31 -5 0
-1 -11 -29 -38 -31 -4 0
-1 -12 -25 -26 -38 -8 0
-1 -12 -25 -29 -38 -5 0
-1 -12 -31 -26 -29 -8 0
-1 -12 -31 -38 -29 -3 0
-1 -12 -34 -29 -26 -5 0
-1 -12 -34 -38 -26 -3 0
-1 -13 -26 -25 -34 -8 0
-1 -13 -26 -29 -34 -4 0
-1 -13 -31 -25 -29 -8 0
-1 -13 -31 -34 -29 -3 0
-1 -13 -38 -29 -25 -4 0
-1 -13 -38 -34 -25 -3 0
-1 -16 -29 -25 -31 -5 0
-1 -16 -29 -26 -31 -4 0
-1 -16 -34 -25 -26 -5 0
-1 -16 -34 -31 -26 -3 0
-1 -16 -38 -26 -25 -4 0
-1 -16 -38 -31 -25 -3 0
-3 -11 -12 -31 -38 -8 0
-3 -11 -12 -34 -38 -5 0
-3 -11 -13 -31 -34 -8 0
-3 -11 -13 -38 -34 -4 0
-3 -11 -16 -34 -31 -5 0
-3 -11 -16 -38 -31 -4 0
-3 -25 -12 -13 -38 -8 0
-3 -25 -12 -16 -38 -5 0
-3 -25 -31 -13 -16 -8 0
-3 -25 -34 -16 -13 -5 0
-3 -26 -13 -12 -34 -8 0
-3 -26 -13 -16 -34 -4 0
-3 -26 -31 -12 -16 -8 0
-3 -26 -38 -16 -12 -4 0
-3 -29 -16 -12 -31 -5 0
-3 -29 -16 -13 -31 -4 0
-3 -29 -34 -12 -13 -5 0
-3 -29 -38 -13 -12 -4 0
-4 -12 -11 -26 -38 -8 0
-4 -12 -11 -29 -38 -5 0
-4 -12 -13 -26 -29 -8 0
-4 -12 -16 -29 -26 -5 0
-4 -25 -11 -13 -38 -8 0
-4 -25 -11 -16 -38 -5 0
-4 -25 -26 -13 -16 -8 0
-4 -25 -29 -16 -13 -5 0
-4 -31 -13 -11 -29 -8 0
-4 -31 -26 -11 -16 -8 0
-4 -34 -16 -11 -26 -5 0
-4 -34 -29 -11 -13 -5 0
-5 -13 -11 -25 -34 -8 0
-5 -13 -12 -25 -29 -8 0
-5 -26 -11 -12 -34 -8 0
-5 -26 -25 -12 -16 -8 0
-5 -31 -12 -11 -29 -8 0
-5 -31 -25 -11 -16 -8 0
-1 -11 -25 -31 -39 -9 0
-1 -11 -25 -35 -39 -5 0
-1 -11 -26 -31 -35 -9 0
-1 -11 -26 -39 -35 -4 0
-1 -11 -30 -35 -31 -5 0
-1 -11 -30 -39 -31 -4 0
-1 -12 -25 -26 -39 -9 0
-1 -12 -25 -30 -39 -5 0
-1 -12 -31 -26 -30 -9 0
-1 -12 -31 -39 -30 -3 0
-1 -12 -35 -30 -26 -5 0
-1 -12 -35 -39 -26 -3 0
-1 -13 -26 -25 -35 -9 0
-1 -13 -26 -30 -35 -4 0
-1 -13 -31 -25 -30 -9 0
-1 -13 -31 -35 -30 -3 0
-1 -13 -39 -30 -25 -4 0
-1 -13 -39 -35 -25 -3 0
-1 -17 -30 -25 -31 -5 0
-1 -17 -30 -26 -31 -4 0
-1 -17 -35 -25 -26 -5 0
-1 -17 -35 -31 -26 -3 0
-1 -17 -39 -26 -25 -4 0
-1 -17 -39 -31 -25 -3 0
-3 -11 -12 -31 -39 -9 0
-3 -11 -12 -35 -39 -5 0
-3 -11 -13 -31 -35 -9 0
-3 -11 -13 -39 -35 -4 0
-3 -11 -17 -35 -31 -5 0
-3 -11 -17 -39 -31 -4 0
-3 -25 -12 -13 -39 -9 0
-3 -25 -12 -17 -39 -5 0
-3 -25 -31 -13 -17 -9 0
-3 -25 -35 -17 -13 -5 0
-3 -26 -13 -12 -35 -9 0
-3 -26 -13 -17 -35 -4 0
-3 -26 -31 -12 -17 -9 0
-3 -26 -39 -17 -12 -4 0
-3 -30 -17 -12 -31 -5 0
-3 -30 -17 -13 -31 -4 0
-3 -30 -35 -12 -13 -5 0
-3 -30 -39 -13 -12 -4 0
-4 -12 -11 -26 -39 -9 0
-4 -12 -11 -30 -39 -5 0
-4 -12 -13 -26 -30 -9 0
-4 -12 -17 -30 -26 -5 0
-4 -25 -11 -13 -39 -9 0
-4 -25 -11 -17 -39 -5 0
-4 -25 -26 -13 -17 -9 0
-4 -25 -30 -17 -13 -5 0
-4 -31 -13 -11 -30 -9 0
-4 -31 -26 -11 -17 -9 0
-4 -35 -17 -11 -26 -5 0
-4 -35 -30 -11 -13 -5 0
-5 -13 -11 -25 -35 -9 0
-5 -13 -12 -25 -30 -9 0
-5 -26 -11 -12 -35 -9 0
-5 -26 -25 -12 -17 -9 0
-5 -31 -12 -11 -30 -9 0
-5 -31 -25 -11 -17 -9 0
-1 -11 -25 -32 -40 -7 0
-1 -11 -25 -33 -40 -6 0
-1 -11 -27 -32 -33 -7 0
-1 -11 -27 -40 -33 -4 0
-1 -11 -28 -33 -32 -6 0
-1 -11 -28 -40 -32 -4 0
-1 -12 -25 -27 -40 -7 0
-1 -12 -25 -28 -40 -6 0
-1 -12 -32 -27 -28 -7 0
-1 -12 -32 -40 -28 -3 0
-1 -12 -33 -28 -27 -6 0
-1 -12 -33 -40 -27 -3 0
-1 -14 -27 -25 -33 -7 0
-1 -14 -27 -28 -33 -4 0
-1 -14 -32 -25 -28 -7 0
-1 -14 -32 -33 -28 -3 0
-1 -14 -40 -28 -25 -4 0
-1 -14 -40 -33 -25 -3 0
-1 -15 -28 -25 -32 -6 0
-1 -15 -28 -27 -32 -4 0
-1 -15 -33 -25 -27 -6 0
-1 -15 -33 -32 -27 -3 0
-1 -15 -40 -27 -25 -4 0
-1 -15 -40 -32 -25 -3 0
-3 -11 -12 -32 -40 -7 0
-3 -11 -12 -33 -40 -6 0
-3 -11 -14 -32 -33 -7 0
-3 -11 -14 -40 -33 -4 0
-3 -11 -15 -33 -32 -6 0
-3 -11 -15 -40 -32 -4 0
-3 -25 -12 -14 -40 -7 0
-3 -25 -12 -15 -40 -6 0
-3 -25 -32 -14 -15 -7 0
-3 -25 -33 -15 -14 -6 0
-3 -27 -14 -12 -33 -7 0
-3 -27 -14 -15 -33 -4 0
-3 -27 -32 -12 -15 -7 0
-3 -27 -40 -15 -12 -4 0
-3 -28 -15 -12 -32 -6 0
-3 -28 -15 -14 -32 -4 0
-3 -28 -33 -12 -14 -6 0
-3 -28 -40 -14 -12 -4 0
-4 -12 -11 -27 -40 -7 0
-4 -12 -11 -28 -40 -6 0
-4 -12 -14 -27 -28 -7 0
-4 -12 -15 -28 -27 -6 0
-4 -25 -11 -14 -40 -7 0
-4 -25 -11 -15 -40 -6 0
-4 -25 -27 -14 -15 -7 0
-4 -25 -28 -15 -14 -6 0
-4 -32 -14 -11 -28 -7 0
-4 -32 -27 -11 -15 -7 0
-4 -33 -15 -11 -27 -6 0
-4 -33 -28 -11 -14 -6 0
-6 -14 -11 -25 -33 -7 0
-6 -14 -12 -25 -28 -7 0
-6 -27 -11 -12 -33 -7 0
-6 -27 -25 -12 -15 -7 0
-6 -32 -12 -11 -28 -7 0
-6 -32 -25 -11 -15 -7 0
-1 -11 -25 -32 -41 -8 0
-1 -11 -25 -34 -41 -6 0
-1 -11 -27 -32 -34 -8 0
-1 -11 -27 -41 -34 -4 0
-1 -11 -29 -34 -32 -6 0
-1 -11 -29 -41 -32 -4 0
-1 -12 -25 -27 -41 -8 0
-1 -12 -25 -29 -41 -6 0
-1 -12 -32 -27 -29 -8 0
-1 -12 -32 -41 -29 -3 0
-1 -12 -34 -29 -27 -6 0
-1 -12 -34 -41 -27 -3 0
-1 -14 -27 -25 -34 -8 0
-1 -14 -27 -29 -34 -4 0
-1 -14 -32 -25 -29 -8 0
-1 -14 -32 -34 -29 -3 0
-1 -14 -41 -29 -25 -4 0
-1 -14 -41 -34 -25 -3 0
-1 -16 -29 -25 -32 -6 0
-1 -16 -29 -27 -32 -4 0
-1 -16 -34 -25 -27 -6 0
-1 -16 -34 -32 -27 -3 0
-1 -16 -41 -27 -25 -4 0
-1 -16 -41 -32 -25 -3 0
-3 -11 -12 -32 -41 -8 0
-3 -11 -12 -34 -41 -6 0
-3 -11 -14 -32 -34 -8 0
-3 -11 -14 -41 -34 -4 0
-3 -11 -16 -34 -32 -6 0
-3 -11 -16 -41 -32 -4 0
-3 -25 -12 -14 -41 -8 0
-3 -25 -12 -16 -41 -6 0
-3 -25 -32 -14 -16 -8 0
-3 -25 -34 -16 -14 -6 0
-3 -27 -14 -12 -34 -8 0
-3 -27 -14 -16 -34 -4 0
-3 -27 -32 -12 -16 -8 0
-3 -27 -41 -16 -12 -4 0
-3 -29 -16 -12 -32 -6 0
-3 -29 -16 -14 -32 -4 0
-3 -29 -34 -12 -14 -6 0
-3 -29 -41 -14 -12 -4 0
-4 -12 -11 -27 -41 -8 0
-4 -12 -11 -29 -41 -6 0
-4 -12 -14 -27 -29 -8 0
-4 -12 -16 -29 -27 -6 0
-4 -25 -11 -14 -41 -8 0
-4 -25 -11 -16 -41 -6 0
-4 -25 -27 -14 -16 -8 0
-4 -25 -29 -16 -14 -6 0
-4 -32 -14 -11 -29 -8 0
-4 -32 -27 -11 -16 -8 0
-4 -34 -16 -11 -27 -6 0
-4 -34 -29 -11 -14 -6 0
-6 -14 -11 -25 -34 -8 0
-6 -14 -12 -25 -29 -8 0
-6 -27 -11 -12 -34 -8 0
-6 -27 -25 -12 -16 -8 0
-6 -32 -12 -11 -29 -8 0
-6 -32 -25 -11 -16 -8 0
-1 -11 -25 -32 -42 -9 0
-1 -11 -25 -35 -42 -6 0
-1 -11 -27 -32 -35 -9 0
-1 -11 -27 -42 -35 -4 0
-1 -11 -30 -35 -32 -6 0
-1 -11 -30 -42 -32 -4 0
-1 -12 -25 -27 -42 -9 0
-1 -12 -25 -30 -42 -6 0
-1 -12 -32 -27 -30 -9 0
-1 -12 -32 -42 -30 -3 0
-1 -12 -35 -30 -27 -6 0
-1 -12 -35 -42 -27 -3 0
-1 -14 -27 -25 -35 -9 0
-1 -14 -27 -30 -35 -4 0
-1 -14 -32 -25 -30 -9 0
-1 -14 -32 -35 -30 -3 0
-1 -14 -42 -30 -25 -4 0
-1 -14 -42 -35 -25 -3 0
-1 -17 -30 -25 -32 -6 0
-1 -17 -30 -27 -32 -4 0
-1 -17 -35 -25 -27 -6 0
-1 -17 -35 -32 -27 -3 0
-1 -17 -42 -27 -25 -4 0
-1 -17 -42 -32 -25 -3 0
-3 -11 -12 -32 -42 -9 0
-3 -11 -12 -35 -42 -6 0
-3 -11 -14 -32 -35 -9 0
-3 -11 -14 -42 -35 -4 0
-3 -11 -17 -35 -32 -6 0
-3 -11 -17 -42 -32 -4 0
-3 -25 -12 -14 -42 -9 0
-3 -25 -12 -17 -42 -6 0
-3 -25 -32 -14 -17 -9 0
-3 -25 -35 -17 -14 -6 0
-3 -27 -14 -12 -35 -9 0
-3 -27 -14 -17 -35 -4 0
-3 -27 -32 -12 -17 -9 0
-3 -27 -42 -17 -12 -4 0
-3 -30 -17 -12 -32 -6 0
-3 -30 -17 -14 -32 -4 0
-3 -30 -35 -12 -14 -6 0
-3 -30 -42 -14 -12 -4 0
-4 -12 -11 -27 -42 -9 0
-4 -12 -11 -30 -42 -6 0
-4 -12 -14 -27 -30 -9 0
-4 -12 -17 -30 -27 -6 0
-4 -25 -11 -14 -42 -9 0
-4 -25 -11 -17 -42 -6 0
-4 -25 -27 -14 -17 -9 0
-4 -25 -30 -17 -14 -6 0
-4 -32 -14 -11 -30 -9 0
-4 -32 -27 -11 -17 -9 0
-4 -35 -17 -11 -27 -6 0
-4 -35 -30 -11 -14 -6 0
-6 -14 -11 -25 -35 -9 0
-6 -14 -12 -25 -30 -9 0
-6 -27 -11 -12 -35 -9 0
-6 -27 -25 -12 -17 -9 0
-6 -32 -12 -11 -30 -9 0
-6 -32 -25 -11 -17 -9 0
-1 -11 -25 -33 -43 -8 0
-1 -11 -25 -34 -43 -7 0
-1 -11 -28 -33 -34 -8 0
-1 -11 -28 -43 -34 -4 0
-1 -11 -29 -34 -33 -7 0
-1 -11 -29 -43 -33 -4 0
-1 -12 -25 -28 -43 -8 0
-1 -12 -25 -29 -43 -7 0
-1 -12 -33 -28 -29 -8 0
-1 -12 -33 -43 -29 -3 0
-1 -12 -34 -29 -28 -7 0
-1 -12 -34 -43 -28 -3 0
-1 -15 -28 -25 -34 -8 0
-1 -15 -28 -29 -34 -4 0
-1 -15 -33 -25 -29 -8 0
-1 -15 -33 -34 -29 -3 0
-1 -15 -43 -29 -25 -4 0
-1 -15 -43 -34 -25 -3 0
-1 -16 -29 -25 -33 -7 0
-1 -16 -29 -28 -33 -4 0
-1 -16 -34 -25 -28 -7 0
-1 -16 -34 -33 -28 -3 0
-1 -16 -43 -28 -25 -4 0
-1 -16 -43 -33 -25 -3 0
-3 -11 -12 -33 -43 -8 0
-3 -11 -12 -34 -43 -7 0
-3 -11 -15 -33 -34 -8 0
-3 -11 -15 -43 -34 -4 0
-3 -11 -16 -34 -33 -7 0
-3 -11 -16 -43 -33 -4 0
-3 -25 -12 -15 -43 -8 0
-3 -25 -12 -16 -43 -7 0
-3 -25 -33 -15 -16 -8 0
-3 -25 -34 -16 -15 -7 0
-3 -28 -15 -12 -34 -8 0
-3 -28 -15 -16 -34 -4 0
-3 -28 -33 -12 -16 -8 0
-3 -28 -43 -16 -12 -4 0
-3 -29 -16 -12 -33 -7 0
-3 -29 -16 -15 -33 -4 0
-3 -29 -34 -12 -15 -7 0
-3 -29 -43 -15 -12 -4 0
-4 -12 -11 -28 -43 -8 0
-4 -12 -11 -29 -43 -7 0
-4 -12 -15 -28 -29 -8 0
-4 -12 -16 -29 -28 -7 0
-4 -25 -11 -15 -43 -8 0
-4 -25 -11 -16 -43 -7 0
-4 -25 -28 -15 -16 -8 0
-4 -25 -29 -16 -15 -7 0
-4 -33 -15 -11 -29 -8 0
-4 -33 -28 -11 -16 -8 0
-4 -34 -16 -11 -28 -7 0
-4 -34 -29 -11 -15 -7 0
-7 -15 -11 -25 -34 -8 0
-7 -15 -12 -25 -29 -8 0
-7 -28 -11 -12 -34 -8 0
-7 -28 -25 -12 -16 -8 0
-7 -33 -12 -11 -29 -8 0
-7 -33 -25 -11 -16 -8 0
-1 -11 -25 -33 -44 -9 0
-1 -11 -25 -35 -44 -7 0
-1 -11 -28 -33 -35 -9 0
-1 -11 -28 -44 -35 -4 0
-1 -11 -30 -35 -33 -7 0
-1 -11 -30 -44 -33 -4 0
-1 -12 -25 -28 -44 -9 0
-1 -12 -25 -30 -44 -7 0
-1 -12 -33 -28 -30 -9 0
-1 -12 -33 -44 -30 -3 0
-1 -12 -35 -30 -28 -7 0
-1 -12 -35 -44 -28 -3 0
-1 -15 -28 -25 -35 -9 0
-1 -15 -28 -30 -35 -4 0
-1 -15 -33 -25 -30 -9 0
-1 -15 -33 -35 -30 -3 0
-1 -15 -44 -30 -25 -4 0
-1 -15 -44 -35 -25 -3 0
-1 -17 -30 -25 -33 -7 0
-1 -17 -30 -28 -33 -4 0
-1 -17 -35 -25 -28 -7 0
-1 -17 -35 -33 -28 -3 0
-1 -17 -44 -28 -25 -4 0
-1 -17 -44 -33 -25 -3 0
-3 -11 -12 -33 -44 -9 0
-3 -11 -12 -35 -44 -7 0
-3 -11 -15 -33 -35 -9 0
-3 -11 -15 -44 -35 -4 0
-3 -11 -17 -35 -33 -7 0
-3 -11 -17 -44 -33 -4 0
-3 -25 -12 -15 -44 -9 0
-3 -25 -12 -17 -44 -7 0
-3 -25 -33 -15 -17 -9 0
-3 -25 -35 -17 -15 -7 0
-3 -28 -15 -12 -35 -9 0
-3 -28 -15 -17 -35 -4 0
-3 -28 -33 -12 -17 -9 0
-3 -28 -44 -17 -12 -4 0
-3 -30 -17 -12 -33 -7 0
-3 -30 -17 -15 -33 -4 0
-3 -30 -35 -12 -15 -7 0
-3 -30 -44 -15 -12 -4 0
-4 -12 -11 -28 -44 -9 0
-4 -12 -11 -30 -44 -7 0
-4 -12 -15 -28 -30 -9 0
-4 -12 -17 -30 -28 -7 0
-4 -25 -11 -15 -44 -9 0
-4 -25 -11 -17 -44 -7 0
-4 -25 -28 -15 -17 -9 0
-4 -25 -30 -17 -15 -7 0
-4 -33 -15 -11 -30 -9 0
-4 -33 -28 -11 -17 -9 0
-4 -35 -17 -11 -28 -7 0
-4 -35 -30 -11 -15 -7 0
-7 -15 -11 -25 -35 -9 0
-7 -15 -12 -25 -30 -9 0
-7 -28 -11 -12 -35 -9 0
-7 -28 -25 -12 -17 -9 0
-7 -33 -12 -11 -30 -9 0
-7 -33 -25 -11 -17 -9 0
-1 -11 -25 -34 -45 -9 0
-1 -11 -25 -35 -45 -8 0
-1 -11 -29 -34 -35 -9 0
-1 -11 -29 -45 -35 -4 0
-1 -11 -30 -35 -34 -8 0
-1 -11 -30 -45 -34 -4 0
-1 -12 -25 -29 -45 -9 0
-1 -12 -25 -30 -45 -8 0
-1 -12 -34 -29 -30 -9 0
-1 -12 -34 -45 -30 -3 0
-1 -12 -35 -30 -29 -8 0
-1 -12 -35 -45 -29 -3 0
-1 -16 -29 -25 -35 -9 0
-1 -16 -29 -30 -35 -4 0
-1 -16 -34 -25 -30 -9 0
-1 -16 -34 -35 -30 -3 0
-1 -16 -45 -30 -25 -4 0
-1 -16 -45 -35 -25 -3 0
-1 -17 -30 -25 -34 -8 0
-1 -17 -30 -29 -34 -4 0
-1 -17 -35 -25 -29 -8 0
-1 -17 -35 -34 -29 -3 0
-1 -17 -45 -29 -25 -4 0
-1 -17 -45 -34 -25 -3 0
-3 -11 -12 -34 -45 -9 0
-3 -11 -12 -35 -45 -8 0
-3 -11 -16 -34 -35 -9 0
-3 -11 -16 -45 -35 -4 0
-3 -11 -17 -35 -34 -8 0
-3 -11 -17 -45 -34 -4 0
-3 -25 -12 -16 -45 -9 0
-3 -25 -12 -17 -45 -8 0
-3 -25 -34 -16 -17 -9 0
-3 -25 -35 -17 -16 -8 0
-3 -29 -16 -12 -35 -9 0
-3 -29 -16 -17 -35 -4 0
-3 -29 -34 -12 -17 -9 0
-3 -29 -45 -17 -12 -4 0
-3 -30 -17 -12 -34 -8 0
-3 -30 -17 -16 -34 -4 0
-3 -30 -35 -12 -16 -8 0
-3 -30 -45 -16 -12 -4 0
-4 -12 -11 -29 -45 -9 0
-4 -12 -11 -30 -45 -8 0
-4 -12 -16 -29 -30 -9 0
-4 -12 -17 -30 -29 -8 0
-4 -25 -11 -16 -45 -9 0
-4 -25 -11 -17 -45 -8 0
-4 -25 -29 -16 -17 -9 0
-4 -25 -30 -17 -16 -8 0
-4 -34 -16 -11 -30 -9 0
-4 -34 -29 -11 -17 -9 0
-4 -35 -17 -11 -29 -8 0
-4 -35 -30 -11 -16 -8 0
-8 -16 -11 -25 -35 -9 0
-8 -16 -12 -25 -30 -9 0
-8 -29 -11 -12 -35 -9 0
-8 -29 -25 -12 -17 -9 0
-8 -34 -12 -11 -30 -9 0
-8 -34 -25 -11 -17 -9 0
-1 -11 -26 -36 -40 -7 0
-1 -11 -26 -37 -40 -6 0
-1 -11 -27 -36 -37 -7 0
-1 -11 -27 -40 -37 -5 0
-1 -11 -28 -37 -36 -6 0
-1 -11 -28 -40 -36 -5 0
-1 -13 -26 -27 -40 -7 0
-1 -13 -26 -28 -40 -6 0
-1 -13 -36 -27 -28 -7 0
-1 -13 -36 -40 -28 -3 0
-1 -13 -37 -28 -27 -6 0
-1 -13 -37 -40 -27 -3 0
-1 -14 -27 -26 -37 -7 0
-1 -14 -27 -28 -37 -5 0
-1 -14 -36 -26 -28 -7 0
-1 -14 -36 -37 -28 -3 0
-1 -14 -40 -28 -26 -5 0
-1 -14 -40 -37 -26 -3 0
-1 -15 -28 -26 -36 -6 0
-1 -15 -28 -27 -36 -5 0
-1 -15 -37 -26 -27 -6 0
-1 -15 -37 -36 -27 -3 0
-1 -15 -40 -27 -26 -5 0
-1 -15 -40 -36 -26 -3 0
-3 -11 -13 -36 -40 -7 0
-3 -11 -13 -37 -40 -6 0
-3 -11 -14 -36 -37 -7 0
-3 -11 -14 -40 -37 -5 0
-3 -11 -15 -37 -36 -6 0
-3 -11 -15 -40 -36 -5 0
-3 -26 -13 -14 -40 -7 0
-3 -26 -13 -15 -40 -6 0
-3 -26 -36 -14 -15 -7 0
-3 -26 -37 -15 -14 -6 0
-3 -27 -14 -13 -37 -7 0
-3 -27 -14 -15 -37 -5 0
-3 -27 -36 -13 -15 -7 0
-3 -27 -40 -15 -13 -5 0
-3 -28 -15 -13 -36 -6 0
-3 -28 -15 -14 -36 -5 0
-3 -28 -37 -13 -14 -6 0
-3 -28 -40 -14 -13 -5 0
-5 -13 -11 -27 -40 -7 0
-5 -13 -11 -28 -40 -6 0
-5 -13 -14 -27 -28 -7 0
-5 -13 -15 -28 -27 -6 0
-5 -26 -11 -14 -40 -7 0
-5 -26 -11 -15 -40 -6 0
-5 -26 -27 -14 -15 -7 0
-5 -26 -28 -15 -14 -6 0
-5 -36 -14 -11 -28 -7 0
-5 -36 -27 -11 -15 -7 0
-5 -37 -15 -11 -27 -6 0
-5 -37 -28 -11 -14 -6 0
-6 -14 -11 -26 -37 -7 0
-6 -14 -13 -26 -28 -7 0
-6 -27 -11 -13 -37 -7 0
-6 -27 -26 -13 -15 -7 0
-6 -36 -13 -11 -28 -7 0
-6 -36 -26 -11 -15 -7 0
-1 -11 -26 -36 -41 -8 0
-1 -11 -26 -38 -41 -6 0
-1 -11 -27 -36 -38 -8 0
-1 -11 -27 -41 -38 -5 0
-1 -11 -29 -38 -36 -6 0
-1 -11 -29 -41 -36 -5 0
-1 -13 -26 -27 -41 -8 0
-1 -13 -26 -29 -41 -6 0
-1 -13 -36 -27 -29 -8 0
-1 -13 -36 -41 -29 -3 0
-1 -13 -38 -29 -27 -6 0
-1 -13 -38 -41 -27 -3 0
-1 -14 -27 -26 -38 -8 0
-1 -14 -27 -29 -38 -5 0
-1 -14 -36 -26 -29 -8 0
-1 -14 -36 -38 -29 -3 0
-1 -14 -41 -29 -26 -5 0
-1 -14 -41 -38 -26 -3 0
-1 -16 -29 -26 -36 -6 0
-1 -16 -29 -27 -36 -5 0
-1 -16 -38 -26 -27 -6 0
-1 -16 -38 -36 -27 -3 0
-1 -16 -41 -27 -26 -5 0
-1 -16 -41 -36 -26 -3 0
-3 -11 -13 -36 -41 -8 0
-3 -11 -13 -38 -41 -6 0
-3 -11 -14 -36 -38 -8 0
-3 -11 -14 -41 -38 -5 0
-3 -11 -16 -38 -36 -6 0
-3 -11 -16 -41 -36 -5 0
-3 -26 -13 -14 -41 -8 0
-3 -26 -13 -16 -41 -6 0
-3 -26 -36 -14 -16 -8 0
-3 -26 -38 -16 -14 -6 0
-3 -27 -14 -13 -38 -8 0
-3 -27 -14 -16 -38 -5 0
-3 -27 -36 -13 -16 -8 0
-3 -27 -41 -16 -13 -5 0
-3 -29 -16 -13 -36 -6 0
-3 -29 -16 -14 -36 -5 0
-3 -29 -38 -13 -14 -6 0
-3 -29 -41 -14 -13 -5 0
-5 -13 -11 -27 -41 -8 0
-5 -13 -11 -29 -41 -6 0
-5 -13 -14 -27 -29 -8 0
-5 -13 -16 -29 -27 -6 0
-5 -26 -11 -14 -41 -8 0
-5 -26 -11 -16 -41 -6 0
-5 -26 -27 -14 -16 -8 0
-5 -26 -29 -16 -14 -6 0
-5 -36 -14 -11 -29 -8 0
-5 -36 -27 -11 -16 -8 0
-5 -38 -16 -11 -27 -6 0
-5 -38 -29 -11 -14 -6 0
-6 -14 -11 -26 -38 -8 0
-6 -14 -13 -26 -29 -8 0
-6 -27 -11 -13 -38 -8 0
-6 -27 -26 -13 -16 -8 0
-6 -36 -13 -11 -29 -8 0
-6 -36 -26 -11 -16 -8 0
-1 -11 -26 -36 -42 -9 0
-1 -11 -26 -39 -42 -6 0
-1 -11 -27 -36 -39 -9 0
-1 -11 -27 -42 -39 -5 0
-1 -11 -30 -39 -36 -6 0
-1 -11 -30 -42 -36 -5 0
-1 -13 -26 -27 -42 -9 0
-1 -13 -26 -30 -42 -6 0
-1 -13 -36 -27 -30 -9 0
-1 -13 -36 -42 -30 -3 0
-1 -13 -39 -30 -27 -6 0
-1 -13 -39 -42 -27 -3 0
-1 -14 -27 -26 -39 -9 0
-1 -14 -27 -30 -39 -5 0
-1 -14 -36 -26 -30 -9 0
-1 -14 -36 -39 -30 -3 0
-1 -14 -42 -30 -26 -5 0
-1 -14 -42 -39 -26 -3 0
-1 -17 -30 -26 -36 -6 0
-1 -17 -30 -27 -36 -5 0
-1 -17 -39 -26 -27 -6 0
-1 -17 -39 -36 -27 -3 0
-1 -17 -42 -27 -26 -5 0
-1 -17 -42 -36 -26 -3 0
-3 -11 -13 -36 -42 -9 0
-3 -11 -13 -39 -42 -6 0
-3 -11 -14 -36 -39 -9 0
-3 -11 -14 -42 -39 -5 0
-3 -11 -17 -39 -36 -6 0
-3 -11 -17 -42 -36 -5 0
-3 -26 -13 -14 -42 -9 0
-3 -26 -13 -17 -42 -6 0
-3 -26 -36 -14 -17 -9 0
-3 -26 -39 -17 -14 -6 0
-3 -27 -14 -13 -39 -9 0
-3 -27 -14 -17 -39 -5 0
-3 -27 -36 -13 -17 -9 0
-3 -27 -42 -17 -13 -5 0
-3 -30 -17 -13 -36 -6 0
-3 -30 -17 -14 -36 -5 0
-3 -30 -39 -13 -14 -6 0
-3 -30 -42 -14 -13 -5 0
-5 -13 -11 -27 -42 -9 0
-5 -13 -11 -30 -42 -6 0
-5 -13 -14 -27 -30 -9 0
-5 -13 -17 -30 -27 -6 0
-5 -26 -11 -14 -42 -9 0
-5 -26 -11 -17 -42 -6 0
-5 -26 -27 -14 -17 -9 0
-5 -26 -30 -17 -14 -6 0
-5 -36 -14 -11 -30 -9 0
-5 -36 -27 -11 -17 -9 0
-5 -39 -17 -11 -27 -6 0
-5 -39 -30 -11 -14 -6 0
-6 -14 -11 -26 -39 -9 0
-6 -14 -13 -26 -30 -9 0
-6 -27 -11 -13 -39 -9 0
-6 -27 -26 -13 -17 -9 0
-6 -36 -13 -11 -30 -9 0
-6 -36 -26 -11 -17 -9 0
-1 -11 -26 -37 -43 -8 0
-1 -11 -26 -38 -43 -7 0
-1 -11 -28 -37 -38 -8 0
-1 -11 -28 -43 -38 -5 0
-1 -11 -29 -38 -37 -7 0
-1 -11 -29 -43 -37 -5 0
-1 -13 -26 -28 -43 -8 0
-1 -13 -26 -29 -43 -7 0
-1 -13 -37 -28 -29 -8 0
-1 -13 -37 -43 -29 -3 0
-1 -13 -38 -29 -28 -7 0
-1 -13 -38 -43 -28 -3 0
-1 -15 -28 -26 -38 -8 0
-1 -15 -28 -29 -38 -5 0
-1 -15 -37 -26 -29 -8 0
-1 -15 -37 -38 -29 -3 0
-1 -15 -43 -29 -26 -5 0
-1 -15 -43 -38 -26 -3 0
-1 -16 -29 -26 -37 -7 0
-1 -16 -29 -28 -37 -5 0
-1 -16 -38 -26 -28 -7 0
-1 -16 -38 -37 -28 -3 0
-1 -16 -43 -28 -26 -5 0
-1 -16 -43 -37 -26 -3 0
-3 -11 -13 -37 -43 -8 0
-3 -11 -13 -38 -43 -7 0
-3 -11 -15 -37 -38 -8 0
-3 -11 -15 -43 -38 -5 0
-3 -11 -16 -38 -37 -7 0
-3 -11 -16 -43 -37 -5 0
-3 -26 -13 -15 -43 -8 0
-3 -26 -13 -16 -43 -7 0
-3 -26 -37 -15 -16 -8 0
-3 -26 -38 -16 -15 -7 0
-3 -28 -15 -13 -38 -8 0
-3 -28 -15 -16 -38 -5 0
-3 -28 -37 -13 -16 -8 0
-3 -28 -43 -16 -13 -5 0
-3 -29 -16 -13 -37 -7 0
-3 -29 -16 -15 -37 -5 0
-3 -29 -38 -13 -15 -7 0
-3 -29 -43 -15 -13 -5 0
-5 -13 -11 -28 -43 -8 0
-5 -13 -11 -29 -43 -7 0
-5 -13 -15 -28 -29 -8 0
-5 -13 -16 -29 -28 -7 0
-5 -26 -11 -15 -43 -8 0
-5 -26 -11 -16 -43 -7 0
-5 -26 -28 -15 -16 -8 0
-5 -26 -29 -16 -15 -7 0
-5 -37 -15 -11 -29 -8 0
-5 -37 -28 -11 -16 -8 0
-5 -38 -16 -11 -28 -7 0
-5 -38 -29 -11 -15 -7 0
-7 -15 -11 -26 -38 -8 0
-7 -15 -13 -26 -29 -8 0
-7 -28 -11 -13 -38 -8 0
-7 -28 -26 -13 -16 -8 0
-7 -37 -13 -11 -29 -8 0
-7 -37 -26 -11 -16 -8 0
-1 -11 -26 -37 -44 -9 0
-1 -11 -26 -39 -44 -7 0
-1 -11 -28 -37 -39 -9 0
-1 -11 -28 -44 -39 -5 0
-1 -11 -30 -39 -37 -7 0
-1 -11 -30 -44 -37 -5 0
-1 -13 -26 -28 -44 -9 0
-1 -13 -26 -30 -44 -7 0
-1 -13 -37 -28 -30 -9 0
-1 -13 -37 -44 -30 -3 0
-1 -13 -39 -30 -28 -7 0
-1 -13 -39 -44 -28 -3 0
-1 -15 -28 -26 -39 -9 0
-1 -15 -28 -30 -39 -5 0
-1 -15 -37 -26 -30 -9 0
-1 -15 -37 -39 -30 -3 0
-1 -15 -44 -30 -26 -5 0
-1 -15 -44 -39 -26 -3 0
-1 -17 -30 -26 -37 -7 0
-1 -17 -30 -28 -37 -5 0
-1 -17 -39 -26 -28 -7 0
-1 -17 -39 -37 -28 -3 0
-1 -17 -44 -28 -26 -5 0
-1 -17 -44 -37 -26 -3 0
-3 -11 -13 -37 -44 -9 0
-3 -11 -13 -39 -44 -7 0
-3 -11 -15 -37 -39 -9 0
-3 -11 -15 -44 -39 -5 0
-3 -11 -17 -39 -37 -7 0
-3 -11 -17 -44 -37 -5 0
-3 -26 -13 -15 -44 -9 0
-3 -26 -13 -17 -44 -7 0
-3 -26 -37 -15 -17 -9 0
-3 -26 -39 -17 -15 -7 0
-3 -28 -15 -13 -39 -9 0
-3 -28 -15 -17 -39 -5 0
-3 -28 -37 -13 -17 -9 0
-3 -28 -44 -17 -13 -5 0
-3 -30 -17 -13 -37 -7 0
-3 -30 -17 -15 -37 -5 0
-3 -30 -39 -13 -15 -7 0
-3 -30 -44 -15 -13 -5 0
-5 -13 -11 -28 -44 -9 0
-5 -13 -11 -30 -44 -7 0
-5 -13 -15 -28 -30 -9 0
-5 -13 -17 -30 -28 -7 0
-5 -26 -11 -15 -44 -9 0
-5 -26 -11 -17 -44 -7 0
-5 -26 -28 -15 -17 -9 0
-5 -26 -30 -17 -15 -7 0
-5 -37 -15 -11 -30 -9 0
-5 -37 -28 -11 -17 -9 0
-5 -39 -17 -11 -28 -7 0
-5 -39 -30 -11 -15 -7 0
-7 -15 -11 -26 -39 -9 0
-7 -15 -13 -26 -30 -9 0
-7 -28 -11 -13 -39 -9 0
-7 -28 -26 -13 -17 -9 0
-7 -37 -13 -11 -30 -9 0
-7 -37 -26 -11 -17 -9 0
-1 -11 -26 -38 -45 -9 0
-1 -11 -26 -39 -45 -8 0
-1 -11 -29 -38 -39 -9 0
-1 -11 -29 -45 -39 -5 0
-1 -11 -30 -39 -38 -8 0
-1 -11 -30 -45 -38 -5 0
-1 -13 -26 -29 -45 -9 0
-1 -13 -26 -30 -45 -8 0
-1 -13 -38 -29 -30 -9 0
-1 -13 -38 -45 -30 -3 0
-1 -13 -39 -30 -29 -8 0
-1 -13 -39 -45 -29 -3 0
-1 -16 -29 -26 -39 -9 0
-1 -16 -29 -30 -39 -5 0
-1 -16 -38 -26 -30 -9 0
-1 -16 -38 -39 -30 -3 0
-1 -16 -45 -30 -26 -5 0
-1 -16 -45 -39 -26 -3 0
-1 -17 -30 -26 -38 -8 0
-1 -17 -30 -29 -38 -5 0
-1 -17 -39 -26 -29 -8 0
-1 -17 -39 -38 -29 -3 0
-1 -17 -45 -29 -26 -5 0
-1 -17 -45 -38 -26 -3 0
-3 -11 -13 -38 -45 -9 0
-3 -11 -13 -39 -45 -8 0
-3 -11 -16 -38 -39 -9 0
-3 -11 -16 -45 -39 -5 0
-3 -11 -17 -39 -38 -8 0
-3 -11 -17 -45 -38 -5 0
-3 -26 -13 -16 -45 -9 0
-3 -26 -13 -17 -45 -8 0
-3 -26 -38 -16 -17 -9 0
-3 -26 -39 -17 -16 -8 0
-3 -29 -16 -13 -39 -9 0
-3 -29 -16 -17 -39 -5 0
-3 -29 -38 -13 -17 -9 0
-3 -29 -45 -17 -13 -5 0
-3 -30 -17 -13 -38 -8 0
-3 -30 -17 -16 -38 -5 0
-3 -30 -39 -13 -16 -8 0
-3 -30 -45 -16 -13 -5 0
-5 -13 -11 -29 -45 -9 0
-5 -13 -11 -30 -45 -8 0
-5 -13 -16 -29 -30 -9 0
-5 -13 -17 -30 -29 -8 0
-5 -26 -11 -16 -45 -9 0
-5 -26 -11 -17 -45 -8 0
-5 -26 -29 -16 -17 -9 0
-5 -26 -30 -17 -16 -8 0
-5 -38 -16 -11 -30 -9 0
-5 -38 -29 -11 -17 -9 0
-5 -39 -17 -11 -29 -8 0
-5 -39 -30 -11 -16 -8 0
-8 -16 -11 -26 -39 -9 0
-8 -16 -13 -26 -30 -9 0
-8 -29 -11 -13 -39 -9 0
-8 -29 -26 -13 -17 -9 0
-8 -38 -13 -11 -30 -9 0
-8 -38 -26 -11 -17 -9 0
-1 -11 -27 -40 -43 -8 0
-1 -11 -27 -41 -43 -7 0
-1 -11 -28 -40 -41 -8 0
-1 -11 -28 -43 -41 -6 0
-1 -11 -29 -41 -40 -7 0
-1 -11 -29 -43 -40 -6 0
-1 -14 -27 -28 -43 -8 0
-1 -14 -27 -29 -43 -7 0
-1 -14 -40 -28 -29 -8 0
-1 -14 -40 -43 -29 -3 0
-1 -14 -41 -29 -28 -7 0
-1 -14 -41 -43 -28 -3 0
-1 -15 -28 -27 -41 -8 0
-1 -15 -28 -29 -41 -6 0
-1 -15 -40 -27 -29 -8 0
-1 -15 -40 -41 -29 -3 0
-1 -15 -43 -29 -27 -6 0
-1 -15 -43 -41 -27 -3 0
-1 -16 -29 -27 -40 -7 0
-1 -16 -29 -28 -40 -6 0
-1 -16 -41 -27 -28 -7 0
-1 -16 -41 -40 -28 -3 0
-1 -16 -43 -28 -27 -6 0
-1 -16 -43 -40 -27 -3 0
-3 -11 -14 -40 -43 -8 0
-3 -11 -14 -41 -43 -7 0
-3 -11 -15 -40 -41 -8 0
-3 -11 -15 -43 -41 -6 0
-3 -11 -16 -41 -40 -7 0
-3 -11 -16 -43 -40 -6 0
-3 -27 -14 -15 -43 -8 0
-3 -27 -14 -16 -43 -7 0
-3 -27 -40 -15 -16 -8 0
-3 -27 -41 -16 -15 -7 0
-3 -28 -15 -14 -41 -8 0
-3 -28 -15 -16 -41 -6 0
-3 -28 -40 -14 -16 -8 0
-3 -28 -43 -16 -14 -6 0
-3 -29 -16 -14 -40 -7 0
-3 -29 -16 -15 -40 -6 0
-3 -29 -41 -14 -15 -7 0
-3 -29 -43 -15 -14 -6 0
-6 -14 -11 -28 -43 -8 0
-6 -14 -11 -29 -43 -7 0
-6 -14 -15 -28 -29 -8 0
-6 -14 -16 -29 -28 -7 0
-6 -27 -11 -15 -43 -8 0
-6 -27 -11 -16 -43 -7 0
-6 -27 -28 -15 -16 -8 0
-6 -27 -29 -16 -15 -7 0
-6 -40 -15 -11 -29 -8 0
-6 -40 -28 -11 -16 -8 0
-6 -41 -16 -11 -28 -7 0
-6 -41 -29 -11 -15 -7 0
-7 -15 -11 -27 -41 -8 0
-7 -15 -14 -27 -29 -8 0
-7 -28 -11 -14 -41 -8 0
-7 -28 -27 -14 -16 -8 0
-7 -40 -14 -11 -29 -8 0
-7 -40 -27 -11 -16 -8 0
-1 -11 -27 -40 -44 -9 0
-1 -11 -27 -42 -44 -7 0
-1 -11 -28 -40 -42 -9 0
-1 -11 -28 -44 -42 -6 0
-1 -11 -30 -42 -40 -7 0
-1 -11 -30 -44 -40 -6 0
-1 -14 -27 -28 -44 -9 0
-1 -14 -27 -30 -44 -7 0
-1 -14 -40 -28 -30 -9 0
-1 -14 -40 -44 -30 -3 0
-1 -14 -42 -30 -28 -7 0
-1 -14 -42 -44 -28 -3 0
-1 -15 -28 -27 -42 -9 0
-1 -15 -28 -30 -42 -6 0
-1 -15 -40 -27 -30 -9 0
-1 -15 -40 -42 -30 -3 0
-1 -15 -44 -30 -27 -6 0
-1 -15 -44 -42 -27 -3 0
-1 -17 -30 -27 -40 -7 0
-1 -17 -30 -28 -40 -6 0
-1 -17 -42 -27 -28 -7 0
-1 -17 -42 -40 -28 -3 0
-1 -17 -44 -28 -27 -6 0
-1 -17 -44 -40 -27 -3 0
-3 -11 -14 -40 -44 -9 0
-3 -11 -14 -42 -44 -7 0
-3 -11 -15 -40 -42 -9 0
-3 -11 -15 -44 -42 -6 0
-3 -11 -17 -42 -40 -7 0
-3 -11 -17 -44 -40 -6 0
-3 -27 -14 -15 -44 -9 0
-3 -27 -14 -17 -44 -7 0
-3 -27 -40 -15 -17 -9 0
-3 -27 -42 -17 -15 -7 0
-3 -28 -15 -14 -42 -9 0
-3 -28 -15 -17 -42 -6 0
-3 -28 -40 -14 -17 -9 0
-3 -28 -44 -17 -14 -6 0
-3 -30 -17 -14 -40 -7 0
-3 -30 -17 -15 -40 -6 0
-3 -30 -42 -14 -15 -7 0
-3 -30 -44 -15 -14 -6 0
-6 -14 -11 -28 -44 -9 0
-6 -14 -11 -30 -44 -7 0
-6 -14 -15 -28 -30 -9 0
-6 -14 -17 -30 -28 -7 0
-6 -27 -11 -15 -44 -9 0
-6 -27 -11 -17 -44 -7 0
-6 -27 -28 -15 -17 -9 0
-6 -27 -30 -17 -15 -7 0
-6 -40 -15 -11 -30 -9 0
-6 -40 -28 -11 -17 -9 0
-6 -42 -17 -11 -28 -7 0
-6 -42 -30 -11 -15 -7 0
-7 -15 -11 -27 -42 -9 0
-7 -15 -14 -27 -30 -9 0
-7 -28 -11 -14 -42 -9 0
-7 -28 -27 -14 -17 -9 0
-7 -40 -14 -11 -30 -9 0
-7 -40 -27 -11 -17 -9 0
-1 -11 -27 -41 -45 -9 0
-1 -11 -27 -42 -45 -8 0
-1 -11 -29 -41 -42 -9 0
-1 -11 -29 -45 -42 -6 0
-1 -11 -30 -42 -41 -8 0
-1 -11 -30 -45 -41 -6 0
-1 -14 -27 -29 -45 -9 0
-1 -14 -27 -30 -45 -8 0
-1 -14 -41 -29 -30 -9 0
-1 -14 -41 -45 -30 -3 0
-1 -14 -42 -30 -29 -8 0
-1 -14 -42 -45 -29 -3 0
-1 -16 -29 -27 -42 -9 0
-1 -16 -29 -30 -42 -6 0
-1 -16 -41 -27 -30 -9 0
-1 -16 -41 -42 -30 -3 0
-1 -16 -45 -30 -27 -6 0
-1 -16 -45 -42 -27 -3 0
-1 -17 -30 -27 -41 -8 0
-1 -17 -30 -29 -41 -6 0
-1 -17 -42 -27 -29 -8 0
-1 -17 -42 -41 -29 -3 0
-1 -17 -45 -29 -27 -6 0
-1 -17 -45 -41 -27 -3 0
-3 -11 -14 -41 -45 -9 0
-3 -11 -14 -42 -45 -8 0
-3 -11 -16 -41 -42 -9 0
-3 -11 -16 -45 -42 -6 0
-3 -11 -17 -42 -41 -8 0
-3 -11 -17 -45 -41 -6 0
-3 -27 -14 -16 -45 -9 0
-3 -27 -14 -17 -45 -8 0
-3 -27 -41 -16 -17 -9 0
-3 -27 -42 -17 -16 -8 0
-3 -29 -16 -14 -42 -9 0
-3 -29 -16 -17 -42 -6 0
-3 -29 -41 -14 -17 -9 0
-3 -29 -45 -17 -14 -6 0
-3 -30 -17 -14 -41 -8 0
-3 -30 -17 -16 -41 -6 0
-3 -30 -42 -14 -16 -8 0
-3 -30 -45 -16 -14 -6 0
-6 -14 -11 -29 -45 -9 0
-6 -14 -11 -30 -45 -8 0
-6 -14 -16 -29 -30 -9 0
-6 -14 -17 -30 -29 -8 0
-6 -27 -11 -16 -45 -9 0
-6 -27 -11 -17 -45 -8 0
-6 -27 -29 -16 -17 -9 0
-6 -27 -30 -17 -16 -8 0
-6 -41 -16 -11 -30 -9 0
-6 -41 -29 -11 -17 -9 0
-6 -42 -17 -11 -29 -8 0
-6 -42 -30 -11 -16 -8 0
-8 -16 -11 -27 -42 -9 0
-8 -16 -14 -27 -30 -9 0
-8 -29 -11 -14 -42 -9 0
-8 -29 -27 -14 -17 -9 0
-8 -41 -14 -11 -30 -9 0
-8 -41 -27 -11 -17 -9 0
-1 -11 -28 -43 -45 -9 0
-1 -11 -28 -44 -45 -8 0
-1 -11 -29 -43 -44 -9 0
-1 -11 -29 -45 -44 -7 0
-1 -11 -30 -44 -43 -8 0
-1 -11 -30 -45 -43 -7 0
-1 -15 -28 -29 -45 -9 0
-1 -15 -28 -30 -45 -8 0
-1 -15 -43 -29 -30 -9 0
-1 -15 -43 -45 -30 -3 0
-1 -15 -44 -30 -29 -8 0
-1 -15 -44 -45 -29 -3 0
-1 -16 -29 -28 -44 -9 0
-1 -16 -29 -30 -44 -7 0
-1 -16 -43 -28 -30 -9 0
-1 -16 -43 -44 -30 -3 0
-1 -16 -45 -30 -28 -7 0
-1 -16 -45 -44 -28 -3 0
-1 -17 -30 -28 -43 -8 0
-1 -17 -30 -29 -43 -7 0
-1 -17 -44 -28 -29 -8 0
-1 -17 -44 -43 -29 -3 0
-1 -17 -45 -29 -28 -7 0
-1 -17 -45 -43 -28 -3 0
-3 -11 -15 -43 -45 -9 0
-3 -11 -15 -44 -45 -8 0
-3 -11 -16 -43 -44 -9 0
-3 -11 -16 -45 -44 -7 0
-3 -11 -17 -44 -43 -8 0
-3 -11 -17 -45 -43 -7 0
-3 -28 -15 -16 -45 -9 0
-3 -28 -15 -17 -45 -8 0
-3 -28 -43 -16 -17 -9 0
-3 -28 -44 -17 -16 -8 0
-3 -29 -16 -15 -44 -9 0
-3 -29 -16 -17 -44 -7 0
-3 -29 -43 -15 -17 -9 0
-3 -29 -45 -17 -15 -7 0
-3 -30 -17 -15 -43 -8 0
-3 -30 -17 -16 -43 -7 0
-3 -30 -44 -15 -16 -8 0
-3 -30 -45 -16 -15 -7 0
-7 -15 -11 -29 -45 -9 0
-7 -15 -11 -30 -45 -8 0
-7 -15 -16 -29 -30 -9 0
-7 -15 -17 -30 -29 -8 0
-7 -28 -11 -16 -45 -9 0
-7 -28 -11 -17 -45 -8 0
-7 -28 -29 -16 -17 -9 0
-7 -28 -30 -17 -16 -8 0
-7 -43 -16 -11 -30 -9 0
-7 -43 -29 -11 -17 -9 0
-7 -44 -17 -11 -29 -8 0
-7 -44 -30 -11 -16 -8 0
-8 -16 -11 -28 -44 -9 0
-8 -16 -15 -28 -30 -9 0
-8 -29 -11 -15 -44 -9 0
-8 -29 -28 -15 -17 -9 0
-8 -43 -15 -11 -30 -9 0
-8 -43 -28 -11 -17 -9 0
-1 -12 -31 -36 -40 -7 0
-1 -12 -31 -37 -40 -6 0
-1 -12 -32 -36 -37 -7 0
-1 -12 -32 -40 -37 -5 0
-1 -12 -33 -37 -36 -6 0
-1 -12 -33 -40 -36 -5 0
-1 -13 -31 -32 -40 -7 0
-1 -13 -31 -33 -40 -6 0
-1 -13 -36 -32 -33 -7 0
-1 -13 -36 -40 -33 -4 0
-1 -13 -37 -33 -32 -6 0
-1 -13 -37 -40 -32 -4 0
-1 -14 -32 -31 -37 -7 0
-1 -14 -32 -33 -37 -5 0
-1 -14 -36 -31 -33 -7 0
-1 -14 -36 -37 -33 -4 0
-1 -14 -40 -33 -31 -5 0
-1 -14 -40 -37 -31 -4 0
-1 -15 -33 -31 -36 -6 0
-1 -15 -33 -32 -36 -5 0
-1 -15 -37 -31 -32 -6 0
-1 -15 -37 -36 -32 -4 0
-1 -15 -40 -32 -31 -5 0
-1 -15 -40 -36 -31 -4 0
-4 -12 -13 -36 -40 -7 0
-4 -12 -13 -37 -40 -6 0
-4 -12 -14 -36 -37 -7 0
-4 -12 -14 -40 -37 -5 0
-4 -12 -15 -37 -36 -6 0
-4 -12 -15 -40 -36 -5 0
-4 -31 -13 -14 -40 -7 0
-4 -31 -13 -15 -40 -6 0
-4 -31 -36 -14 -15 -7 0
-4 -31 -37 -15 -14 -6 0
-4 -32 -14 -13 -37 -7 0
-4 -32 -14 -15 -37 -5 0
-4 -32 -36 -13 -15 -7 0
-4 -32 -40 -15 -13 -5 0
-4 -33 -15 -13 -36 -6 0
-4 -33 -15 -14 -36 -5 0
-4 -33 -37 -13 -14 -6 0
-4 -33 -40 -14 -13 -5 0
-5 -13 -12 -32 -40 -7 0
-5 -13 -12 -33 -40 -6 0
-5 -13 -14 -32 -33 -7 0
-5 -13 -15 -33 -32 -6 0
-5 -31 -12 -14 -40 -7 0
-5 -31 -12 -15 -40 -6 0
-5 -31 -32 -14 -15 -7 0
-5 -31 -33 -15 -14 -6 0
-5 -36 -14 -12 -33 -7 0
-5 -36 -32 -12 -15 -7 0
-5 -37 -15 -12 -32 -6 0
-5 -37 -33 -12 -14 -6 0
-6 -14 -12 -31 -37 -7 0
-6 -14 -13 -31 -33 -7 0
-6 -32 -12 -13 -37 -7 0
-6 -32 -31 -13 -15 -7 0
-6 -36 -13 -12 -33 -7 0
-6 -36 -31 -12 -15 -7 0
-1 -12 -31 -36 -41 -8 0
-1 -12 -31 -38 -41 -6 0
-1 -12 -32 -36 -38 -8 0
-1 -12 -32 -41 -38 -5 0
-1 -12 -34 -38 -36 -6 0
-1 -12 -34 -41 -36 -5 0
-1 -13 -31 -32 -41 -8 0
-1 -13 -31 -34 -41 -6 0
-1 -13 -36 -32 -34 -8 0
-1 -13 -36 -41 -34 -4 0
-1 -13 -38 -34 -32 -6 0
-1 -13 -38 -41 -32 -4 0
-1 -14 -32 -31 -38 -8 0
-1 -14 -32 -34 -38 -5 0
-1 -14 -36 -31 -34 -8 0
-1 -14 -36 -38 -34 -4 0
-1 -14 -41 -34 -31 -5 0
-1 -14 -41 -38 -31 -4 0
-1 -16 -34 -31 -36 -6 0
-1 -16 -34 -32 -36 -5 0
-1 -16 -38 -31 -32 -6 0
-1 -16 -38 -36 -32 -4 0
-1 -16 -41 -32 -31 -5 0
-1 -16 -41 -36 -31 -4 0
-4 -12 -13 -36 -41 -8 0
-4 -12 -13 -38 -41 -6 0
-4 -12 -14 -36 -38 -8 0
-4 -12 -14 -41 -38 -5 0
-4 -12 -16 -38 -36 -6 0
-4 -12 -16 -41 -36 -5 0
-4 -31 -13 -14 -41 -8 0
-4 -31 -13 -16 -41 -6 0
-4 -31 -36 -14 -16 -8 0
-4 -31 -38 -16 -14 -6 0
-4 -32 -14 -13 -38 -8 0
-4 -32 -14 -16 -38 -5 0
-4 -32 -36 -13 -16 -8 0
-4 -32 -41 -16 -13 -5 0
-4 -34 -16 -13 -36 -6 0
-4 -34 -16 -14 -36 -5 0
-4 -34 -38 -13 -14 -6 0
-4 -34 -41 -14 -13 -5 0
-5 -13 -12 -32 -41 -8 0
-5 -13 -12 -34 -41 -6 0
-5 -13 -14 -32 -34 -8 0
-5 -13 -16 -34 -32 -6 0
-5 -31 -12 -14 -41 -8 0
-5 -31 -12 -16 -41 -6 0
-5 -31 -32 -14 -16 -8 0
-5 -31 -34 -16 -14 -6 0
-5 -36 -14 -12 -34 -8 0
-5 -36 -32 -12 -16 -8 0
-5 -38 -16 -12 -32 -6 0
-5 -38 -34 -12 -14 -6 0
-6 -14 -12 -31 -38 -8 0
-6 -14 -13 -31 -34 -8 0
-6 -32 -12 -13 -38 -8 0
-6 -32 -31 -13 -16 -8 0
-6 -36 -13 -12 -34 -8 0
-6 -36 -31 -12 -16 -8 0
-1 -12 -31 -36 -42 -9 0
-1 -12 -31 -39 -42 -6 0
-1 -12 -32 -36 -39 -9 0
-1 -12 -32 -42 -39 -5 0
-1 -12 -35 -39 -36 -6 0
-1 -12 -35 -42 -36 -5 0
-1 -13 -31 -32 -42 -9 0
-1 -13 -31 -35 -42 -6 0
-1 -13 -36 -32 -35 -9 0
-1 -13 -36 -42 -35 -4 0
-1 -13 -39 -35 -32 -6 0
-1 -13 -39 -42 -32 -4 0
-1 -14 -32 -31 -39 -9 0
-1 -14 -32 -35 -39 -5 0
-1 -14 -36 -31 -35 -9 0
-1 -14 -36 -39 -35 -4 0
-1 -14 -42 -35 -31 -5 0
-1 -14 -42 -39 -31 -4 0
-1 -17 -35 -31 -36 -6 0
-1 -17 -35 -32 -36 -5 0
-1 -17 -39 -31 -32 -6 0
-1 -17 -39 -36 -32 -4 0
-1 -17 -42 -32 -31 -5 0
-1 -17 -42 -36 -31 -4 0
-4 -12 -13 -36 -42 -9 0
-4 -12 -13 -39 -42 -6 0
-4 -12 -14 -36 -39 -9 0
-4 -12 -14 -42 -39 -5 0
-4 -12 -17 -39 -36 -6 0
-4 -12 -17 -42 -36 -5 0
-4 -31 -13 -14 -42 -9 0
-4 -31 -13 -17 -42 -6 0
-4 -31 -36 -14 -17 -9 0
-4 -31 -39 -17 -14 -6 0
-4 -32 -14 -13 -39 -9 0
-4 -32 -14 -17 -39 -5 0
-4 -32 -36 -13 -17 -9 0
-4 -32 -42 -17 -13 -5 0
-4 -35 -17 -13 -36 -6 0
-4 -35 -17 -14 -36 -5 0
-4 -35 -39 -13 -14 -6 0
-4 -35 -42 -14 -13 -5 0
-5 -13 -12 -32 -42 -9 0
-5 -13 -12 -35 -42 -6 0
-5 -13 -14 -32 -35 -9 0
-5 -13 -17 -35 -32 -6 0
-5 -31 -12 -14 -42 -9 0
-5 -31 -12 -17 -42 -6 0
-5 -31 -32 -14 -17 -9 0
-5 -31 -35 -17 -14 -6 0
-5 -36 -14 -12 -35 -9 0
-5 -36 -32 -12 -17 -9 0
-5 -39 -17 -12 -32 -6 0
-5 -39 -35 -12 -14 -6 0
-6 -14 -12 -31 -39 -9 0
-6 -14 -13 -31 -35 -9 0
-6 -32 -12 -13 -39 -9 0
-6 -32 -31 -13 -17 -9 0
-6 -36 -13 -12 -35 -9 0
-6 -36 -31 -12 -17 -9 0
-1 -12 -31 -37 -43 -8 0
-1 -12 -31 -38 -43 -7 0
-1 -12 -33 -37 -38 -8 0
-1 -12 -33 -43 -38 -5 0
-1 -12 -34 -38 -37 -7 0
-1 -12 -34 -43 -37 -5 0
-1 -13 -31 -33 -43 -8 0
-1 -13 -31 -34 -43 -7 0
-1 -13 -37 -33 -34 -8 0
-1 -13 -37 -43 -34 -4 0
-1 -13 -38 -34 -33 -7 0
-1 -13 -38 -43 -33 -4 0
-1 -15 -33 -31 -38 -8 0
-1 -15 -33 -34 -38 -5 0
-1 -15 -37 -31 -34 -8 0
-1 -15 -37 -38 -34 -4 0
-1 -15 -43 -34 -31 -5 0
-1 -15 -43 -38 -31 -4 0
-1 -16 -34 -31 -37 -7 0
-1 -16 -34 -33 -37 -5 0
-1 -16 -38 -31 -33 -7 0
-1 -16 -38 -37 -33 -4 0
-1 -16 -43 -33 -31 -5 0
-1 -16 -43 -37 -31 -4 0
-4 -12 -13 -37 -43 -8 0
-4 -12 -13 -38 -43 -7 0
-4 -12 -15 -37 -38 -8 0
-4 -12 -15 -43 -38 -5 0
-4 -12 -16 -38 -37 -7 0
-4 -12 -16 -43 -37 -5 0
-4 -31 -13 -15 -43 -8 0
-4 -31 -13 -16 -43 -7 0
-4 -31 -37 -15 -16 -8 0
-4 -31 -38 -16 -15 -7 0
-4 -33 -15 -13 -38 -8 0
-4 -33 -15 -16 -38 -5 0
-4 -33 -37 -13 -16 -8 0
-4 -33 -43 -16 -13 -5 0
-4 -34 -16 -13 -37 -7 0
-4 -34 -16 -15 -37 -5 0
-4 -34 -38 -13 -15 -7 0
-4 -34 -43 -15 -13 -5 0
-5 -13 -12 -33 -43 -8 0
-5 -13 -12 -34 -43 -7 0
-5 -13 -15 -33 -34 -8 0
-5 -13 -16 -34 -33 -7 0
-5 -31 -12 -15 -43 -8 0
-5 -31 -12 -16 -43 -7 0
-5 -31 -33 -15 -16 -8 0
-5 -31 -34 -16 -15 -7 0
-5 -37 -15 -12 -34 -8 0
-5 -37 -33 -12 -16 -8 0
-5 -38 -16 -12 -33 -7 0
-5 -38 -34 -12 -15 -7 0
-7 -15 -12 -31 -38 -8 0
-7 -15 -13 -31 -34 -8 0
-7 -33 -12 -13 -38 -8 0
-7 -33 -31 -13 -16 -8 0
-7 -37 -13 -12 -34 -8 0
-7 -37 -31 -12 -16 -8 0
-1 -12 -31 -37 -44 -9 0
-1 -12 -31 -39 -44 -7 0
-1 -12 -33 -37 -39 -9 0
-1 -12 -33 -44 -39 -5 0
-1 -12 -35 -39 -37 -7 0
-1 -12 -35 -44 -37 -5 0
-1 -13 -31 -33 -44 -9 0
-1 -13 -31 -35 -44 -7 0
-1 -13 -37 -33 -35 -9 0
-1 -13 -37 -44 -35 -4 0
-1 -13 -39 -35 -33 -7 0
-1 -13 -39 -44 -33 -4 0
-1 -15 -33 -31 -39 -9 0
-1 -15 -33 -35 -39 -5 0
-1 -15 -37 -31 -35 -9 0
-1 -15 -37 -39 -35 -4 0
-1 -15 -44 -35 -31 -5 0
-1 -15 -44 -39 -31 -4 0
-1 -17 -35 -31 -37 -7 0
-1 -17 -35 -33 -37 -5 0
-1 -17 -39 -31 -33 -7 0
-1 -17 -39 -37 -33 -4 0
-1 -17 -44 -33 -31 -5 0
-1 -17 -44 -37 -31 -4 0
-4 -12 -13 -37 -44 -9 0
-4 -12 -13 -39 -44 -7 0
-4 -12 -15 -37 -39 -9 0
-4 -12 -15 -44 -39 -5 0
-4 -12 -17 -39 -37 -7 0
-4 -12 -17 -44 -37 -5 0
-4 -31 -13 -15 -44 -9 0
-4 -31 -13 -17 -44 -7 0
-4 -31 -37 -15 -17 -9 0
-4 -31 -39 -17 -15 -7 0
-4 -33 -15 -13 -39 -9 0
-4 -33 -15 -17 -39 -5 0
-4 -33 -37 -13 -17 -9 0
-4 -33 -44 -17 -13 -5 0
-4 -35 -17 -13 -37 -7 0
-4 -35 -17 -15 -37 -5 0
-4 -35 -39 -13 -15 -7 0
-4 -35 -44 -15 -13 -5 0
-5 -13 -12 -33 -44 -9 0
-5 -13 -12 -35 -44 -7 0
-5 -13 -15 -33 -35 -9 0
-5 -13 -17 -35 -33 -7 0
-5 -31 -12 -15 -44 -9 0
-5 -31 -12 -17 -44 -7 0
-5 -31 -33 -15 -17 -9 0
-5 -31 -35 -17 -15 -7 0
-5 -37 -15 -12 -35 -9 0
-5 -37 -33 -12 -17 -9 0
-5 -39 -17 -12 -33 -7 0
-5 -39 -35 -12 -15 -7 0
-7 -15 -12 -31 -39 -9 0
-7 -15 -13 -31 -35 -9 0
-7 -33 -12 -13 -39 -9 0
-7 -33 -31 -13 -17 -9 0
-7 -37 -13 -12 -35 -9 0
-7 -37 -31 -12 -17 -9 0
-1 -12 -31 -38 -45 -9 0
-1 -12 -31 -39 -45 -8 0
-1 -12 -34 -38 -39 -9 0
-1 -12 -34 -45 -39 -5 0
-1 -12 -35 -39 -38 -8 0
-1 -12 -35 -45 -38 -5 0
-1 -13 -31 -34 -45 -9 0
-1 -13 -31 -35 -45 -8 0
-1 -13 -38 -34 -35 -9 0
-1 -13 -38 -45 -35 -4 0
-1 -13 -39 -35 -34 -8 0
-1 -13 -39 -45 -34 -4 0
-1 -16 -34 -31 -39 -9 0
-1 -16 -34 -35 -39 -5 0
-1 -16 -38 -31 -35 -9 0
-1 -16 -38 -39 -35 -4 0
-1 -16 -45 -35 -31 -5 0
-1 -16 -45 -39 -31 -4 0
-1 -17 -35 -31 -38 -8 0
-1 -17 -35 -34 -38 -5 0
-1 -17 -39 -31 -34 -8 0
-1 -17 -39 -38 -34 -4 0
-1 -17 -45 -34 -31 -5 0
-1 -17 -45 -38 -31 -4 0
-4 -12 -13 -38 -45 -9 0
-4 -12 -13 -39 -45 -8 0
-4 -12 -16 -38 -39 -9 0
-4 -12 -16 -45 -39 -5 0
-4 -12 -17 -39 -38 -8 0
-4 -12 -17 -45 -38 -5 0
-4 -31 -13 -16 -45 -9 0
-4 -31 -13 -17 -45 -8 0
-4 -31 -38 -16 -17 -9 0
-4 -31 -39 -17 -16 -8 0
-4 -34 -16 -13 -39 -9 0
-4 -34 -16 -17 -39 -5 0
-4 -34 -38 -13 -17 -9 0
-4 -34 -45 -17 -13 -5 0
-4 -35 -17 -13 -38 -8 0
-4 -35 -17 -16 -38 -5 0
-4 -35 -39 -13 -16 -8 0
-4 -35 -45 -16 -13 -5 0
-5 -13 -12 -34 -45 -9 0
-5 -13 -12 -35 -45 -8 0
-5 -13 -16 -34 -35 -9 0
-5 -13 -17 -35 -34 -8 0
-5 -31 -12 -16 -45 -9 0
-5 -31 -12 -17 -45 -8 0
-5 -31 -34 -16 -17 -9 0
-5 -31 -35 -17 -16 -8 0
-5 -38 -16 -12 -35 -9 0
-5 -38 -34 -12 -17 -9 0
-5 -39 -17 -12 -34 -8 0
-5 -39 -35 -12 -16 -8 0
-8 -16 -12 -31 -39 -9 0
-8 -16 -13 -31 -35 -9 0
-8 -34 -12 -13 -39 -9 0
-8 -34 -31 -13 -17 -9 0
-8 -38 -13 -12 -35 -9 0
-8 -38 -31 -12 -17 -9 0
-1 -12 -32 -40 -43 -8 0
-1 -12 -32 -41 -43 -7 0
-1 -12 -33 -40 -41 -8 0
-1 -12 -33 -43 -41 -6 0
-1 -12 -34 -41 -40 -7 0
-1 -12 -34 -43 -40 -6 0
-1 -14 -32 -33 -43 -8 0
-1 -14 -32 -34 -43 -7 0
-1 -14 -40 -33 -34 -8 0
-1 -14 -40 -43 -34 -4 0
-1 -14 -41 -34 -33 -7 0
-1 -14 -41 -43 -33 -4 0
-1 -15 -33 -32 -41 -8 0
-1 -15 -33 -34 -41 -6 0
-1 -15 -40 -32 -34 -8 0
-1 -15 -40 -41 -34 -4 0
-1 -15 -43 -34 -32 -6 0
-1 -15 -43 -41 -32 -4 0
-1 -16 -34 -32 -40 -7 0
-1 -16 -34 -33 -40 -6 0
-1 -16 -41 -32 -33 -7 0
-1 -16 -41 -40 -33 -4 0
-1 -16 -43 -33 -32 -6 0
-1 -16 -43 -40 -32 -4 0
-4 -12 -14 -40 -43 -8 0
-4 -12 -14 -41 -43 -7 0
-4 -12 -15 -40 -41 -8 0
-4 -12 -15 -43 -41 -6 0
-4 -12 -16 -41 -40 -7 0
-4 -12 -16 -43 -40 -6 0
-4 -32 -14 -15 -43 -8 0
-4 -32 -14 -16 -43 -7 0
-4 -32 -40 -15 -16 -8 0
-4 -32 -41 -16 -15 -7 0
-4 -33 -15 -14 -41 -8 0
-4 -33 -15 -16 -41 -6 0
-4 -33 -40 -14 -16 -8 0
-4 -33 -43 -16 -14 -6 0
-4 -34 -16 -14 -40 -7 0
-4 -34 -16 -15 -40 -6 0
-4 -34 -41 -14 -15 -7 0
-4 -34 -43 -15 -14 -6 0
-6 -14 -12 -33 -43 -8 0
-6 -14 -12 -34 -43 -7 0
-6 -14 -15 -33 -34 -8 0
-6 -14 -16 -34 -33 -7 0
-6 -32 -12 -15 -43 -8 0
-6 -32 -12 -16 -43 -7 0
-6 -32 -33 -15 -16 -8 0
-6 -32 -34 -16 -15 -7 0
-6 -40 -15 -12 -34 -8 0
-6 -40 -33 -12 -16 -8 0
-6 -41 -16 -12 -33 -7 0
-6 -41 -34 -12 -15 -7 0
-7 -15 -12 -32 -41 -8 0
-7 -15 -14 -32 -34 -8 0
-7 -33 -12 -14 -41 -8 0
-7 -33 -32 -14 -16 -8 0
-7 -40 -14 -12 -34 -8 0
-7 -40 -32 -12 -16 -8 0
-1 -12 -32 -40 -44 -9 0
-1 -12 -32 -42 -44 -7 0
-1 -12 -33 -40 -42 -9 0
-1 -12 -33 -44 -42 -6 0
-1 -12 -35 -42 -40 -7 0
-1 -12 -35 -44 -40 -6 0
-1 -14 -32 -33 -44 -9 0
-1 -14 -32 -35 -44 -7 0
-1 -14 -40 -33 -35 -9 0
-1 -14 -40 -44 -35 -4 0
-1 -14 -42 -35 -33 -7 0
-1 -14 -42 -44 -33 -4 0
-1 -15 -33 -32 -42 -9 0
-1 -15 -33 -35 -42 -6 0
-1 -15 -40 -32 -35 -9 0
-1 -15 -40 -42 -35 -4 0
-1 -15 -44 -35 -32 -6 0
-1 -15 -44 -42 -32 -4 0
-1 -17 -35 -32 -40 -7 0
-1 -17 -35 -33 -40 -6 0
-1 -17 -42 -32 -33 -7 0
-1 -17 -42 -40 -33 -4 0
-1 -17 -44 -33 -32 -6 0
-1 -17 -44 -40 -32 -4 0
-4 -12 -14 -40 -44 -9 0
-4 -12 -14 -42 -44 -7 0
-4 -12 -15 -40 -42 -9 0
-4 -12 -15 -44 -42 -6 0
-4 -12 -17 -42 -40 -7 0
-4 -12 -17 -44 -40 -6 0
-4 -32 -14 -15 -44 -9 0
-4 -32 -14 -17 -44 -7 0
-4 -32 -40 -15 -17 -9 0
-4 -32 -42 -17 -15 -7 0
-4 -33 -15 -14 -42 -9 0
-4 -33 -15 -17 -42 -6 0
-4 -33 -40 -14 -17 -9 0
-4 -33 -44 -17 -14 -6 0
-4 -35 -17 -14 -40 -7 0
-4 -35 -17 -15 -40 -6 0
-4 -35 -42 -14 -15 -7 0
-4 -35 -44 -15 -14 -6 0
-6 -14 -12 -33 -44 -9 0
-6 -14 -12 -35 -44 -7 0
-6 -14 -15 -33 -35 -9 0
-6 -14 -17 -35 -33 -7 0
-6 -32 -12 -15 -44 -9 0
-6 -32 -12 -17 -44 -7 0
-6 -32 -33 -15 -17 -9 0
-6 -32 -35 -17 -15 -7 0
-6 -40 -15 -12 -35 -9 0
-6 -40 -33 -12 -17 -9 0
-6 -42 -17 -12 -33 -7 0
-6 -42 -35 -12 -15 -7 0
-7 -15 -12 -32 -42 -9 0
-7 -15 -14 -32 -35 -9 0
-7 -33 -12 -14 -42 -9 0
-7 -33 -32 -14 -17 -9 0
-7 -40 -14 -12 -35 -9 0
-7 -40 -32 -12 -17 -9 0
-1 -12 -32 -41 -45 -9 0
-1 -12 -32 -42 -45 -8 0
-1 -12 -34 -41 -42 -9 0
-1 -12 -34 -45 -42 -6 0
-1 -12 -35 -42 -41 -8 0
-1 -12 -35 -45 -41 -6 0
-1 -14 -32 -34 -45 -9 0
-1 -14 -32 -35 -45 -8 0
-1 -14 -41 -34 -35 -9 0
-1 -14 -41 -45 -35 -4 0
-1 -14 -42 -35 -34 -8 0
-1 -14 -42 -45 -34 -4 0
-1 -16 -34 -32 -42 -9 0
-1 -16 -34 -35 -42 -6 0
-1 -16 -41 -32 -35 -9 0
-1 -16 -41 -42 -35 -4 0
-1 -16 -45 -35 -32 -6 0
-1 -16 -45 -42 -32 -4 0
-1 -17 -35 -32 -41 -8 0
-1 -17 -35 -34 -41 -6 0
-1 -17 -42 -32 -34 -8 0
-1 -17 -42 -41 -34 -4 0
-1 -17 -45 -34 -32 -6 0
-1 -17 -45 -41 -32 -4 0
-4 -12 -14 -41 -45 -9 0
-4 -12 -14 -42 -45 -8 0
-4 -12 -16 -41 -42 -9 0
-4 -12 -16 -45 -42 -6 0
-4 -12 -17 -42 -41 -8 0
-4 -12 -17 -45 -41 -6 0
-4 -32 -14 -16 -45 -9 0
-4 -32 -14 -17 -45 -8 0
-4 -32 -41 -16 -17 -9 0
-4 -32 -42 -17 -16 -8 0
-4 -34 -16 -14 -42 -9 0
-4 -34 -16 -17 -42 -6 0
-4 -34 -41 -14 -17 -9 0
-4 -34 -45 -17 -14 -6 0
-4 -35 -17 -14 -41 -8 0
-4 -35 -17 -16 -41 -6 0
-4 -35 -42 -14 -16 -8 0
-4 -35 -45 -16 -14 -6 0
-6 -14 -12 -34 -45 -9 0
-6 -14 -12 -35 -45 -8 0
-6 -14 -16 -34 -35 -9 0
-6 -14 -17 -35 -34 -8 0
-6 -32 -12 -16 -45 -9 0
-6 -32 -12 -17 -45 -8 0
-6 -32 -34 -16 -17 -9 0
-6 -32 -35 -17 -16 -8 0
-6 -41 -16 -12 -35 -9 0
-6 -41 -34 -12 -17 -9 0
-6 -42 -17 -12 -34 -8 0
-6 -42 -35 -12 -16 -8 0
-8 -16 -12 -32 -42 -9 0
-8 -16 -14 -32 -35 -9 0
-8 -34 -12 -14 -42 -9 0
-8 -34 -32 -14 -17 -9 0
-8 -41 -14 -12 -35 -9 0
-8 -41 -32 -12 -17 -9 0
-1 -12 -33 -43 -45 -9 0
-1 -12 -33 -44 -45 -8 0
-1 -12 -34 -43 -44 -9 0
-1 -12 -34 -45 -44 -7 0
-1 -12 -35 -44 -43 -8 0
-1 -12 -35 -45 -43 -7 0
-1 -15 -33 -34 -45 -9 0
-1 -15 -33 -35 -45 -8 0
-1 -15 -43 -34 -35 -9 0
-1 -15 -43 -45 -35 -4 0
-1 -15 -44 -35 -34 -8 0
-1 -15 -44 -45 -34 -4 0
-1 -16 -34 -33 -44 -9 0
-1 -16 -34 -35 -44 -7 0
-1 -16 -43 -33 -35 -9 0
-1 -16 -43 -44 -35 -4 0
-1 -16 -45 -35 -33 -7 0
-1 -16 -45 -44 -33 -4 0
-1 -17 -35 -33 -43 -8 0
-1 -17 -35 -34 -43 -7 0
-1 -17 -44 -33 -34 -8 0
-1 -17 -44 -43 -34 -4 0
-1 -17 -45 -34 -33 -7 0
-1 -17 -45 -43 -33 -4 0
-4 -12 -15 -43 -45 -9 0
-4 -12 -15 -44 -45 -8 0
-4 -12 -16 -43 -44 -9 0
-4 -12 -16 -45 -44 -7 0
-4 -12 -17 -44 -43 -8 0
-4 -12 -17 -45 -43 -7 0
-4 -33 -15 -16 -45 -9 0
-4 -33 -15 -17 -45 -8 0
-4 -33 -43 -16 -17 -9 0
-4 -33 -44 -17 -16 -8 0
-4 -34 -16 -15 -44 -9 0
-4 -34 -16 -17 -44 -7 0
-4 -34 -43 -15 -17 -9 0
-4 -34 -45 -17 -15 -7 0
-4 -35 -17 -15 -43 -8 0
-4 -35 -17 -16 -43 -7 0
-4 -35 -44 -15 -16 -8 0
-4 -35 -45 -16 -15 -7 0
-7 -15 -12 -34 -45 -9 0
-7 -15 -12 -35 -45 -8 0
-7 -15 -16 -34 -35 -9 0
-7 -15 -17 -35 -34 -8 0
-7 -33 -12 -16 -45 -9 0
-7 -33 -12 -17 -45 -8 0
-7 -33 -34 -16 -17 -9 0
-7 -33 -35 -17 -16 -8 0
-7 -43 -16 -12 -35 -9 0
-7 -43 -34 -12 -17 -9 0
-7 -44 -17 -12 -34 -8 0
-7 -44 -35 -12 -16 -8 0
-8 -16 -12 -33 -44 -9 0
-8 -16 -15 -33 -35 -9 0
-8 -34 -12 -15 -44 -9 0
-8 -34 -33 -15 -17 -9 0
-8 -43 -15 -12 -35 -9 0
-8 -43 -33 -12 -17 -9 0
-1 -13 -36 -40 -43 -8 0
-1 -13 -36 -41 -43 -7 0
-1 -13 -37 -40 -41 -8 0
-1 -13 -37 -43 -41 -6 0
-1 -13 -38 -41 -40 -7 0
-1 -13 -38 -43 -40 -6 0
-1 -14 -36 -37 -43 -8 0
-1 -14 -36 -38 -43 -7 0
-1 -14 -40 -37 -38 -8 0
-1 -14 -40 -43 -38 -5 0
-1 -14 -41 -38 -37 -7 0
-1 -14 -41 -43 -37 -5 0
-1 -15 -37 -36 -41 -8 0
-1 -15 -37 -38 -41 -6 0
-1 -15 -40 -36 -38 -8 0
-1 -15 -40 -41 -38 -5 0
-1 -15 -43 -38 -36 -6 0
-1 -15 -43 -41 -36 -5 0
-1 -16 -38 -36 -40 -7 0
-1 -16 -38 -37 -40 -6 0
-1 -16 -41 -36 -37 -7 0
-1 -16 -41 -40 -37 -5 0
-1 -16 -43 -37 -36 -6 0
-1 -16 -43 -40 -36 -5 0
-5 -13 -14 -40 -43 -8 0
-5 -13 -14 -41 -43 -7 0
-5 -13 -15 -40 -41 -8 0
-5 -13 -15 -43 -41 -6 0
-5 -13 -16 -41 -40 -7 0
-5 -13 -16 -43 -40 -6 0
-5 -36 -14 -15 -43 -8 0
-5 -36 -14 -16 -43 -7 0
-5 -36 -40 -15 -16 -8 0
-5 -36 -41 -16 -15 -7 0
-5 -37 -15 -14 -41 -8 0
-5 -37 -15 -16 -41 -6 0
-5 -37 -40 -14 -16 -8 0
-5 -37 -43 -16 -14 -6 0
-5 -38 -16 -14 -40 -7 0
-5 -38 -16 -15 -40 -6 0
-5 -38 -41 -14 -15 -7 0
-5 -38 -43 -15 -14 -6 0
-6 -14 -13 -37 -43 -8 0
-6 -14 -13 -38 -43 -7 0
-6 -14 -15 -37 -38 -8 0
-6 -14 -16 -38 -37 -7 0
-6 -36 -13 -15 -43 -8 0
-6 -36 -13 -16 -43 -7 0
-6 -36 -37 -15 -16 -8 0
-6 -36 -38 -16 -15 -7 0
-6 -40 -15 -13 -38 -8 0
-6 -40 -37 -13 -16 -8 0
-6 -41 -16 -13 -37 -7 0
-6 -41 -38 -13 -15 -7 0
-7 -15 -13 -36 -41 -8 0
-7 -15 -14 -36 -38 -8 0
-7 -37 -13 -14 -41 -8 0
-7 -37 -36 -14 -16 -8 0
-7 -40 -14 -13 -38 -8 0
-7 -40 -36 -13 -16 -8 0
-1 -13 -36 -40 -44 -9 0
-1 -13 -36 -42 -44 -7 0
-1 -13 -37 -40 -42 -9 0
-1 -13 -37 -44 -42 -6 0
-1 -13 -39 -42 -40 -7 0
-1 -13 -39 -44 -40 -6 0
-1 -14 -36 -37 -44 -9 0
-1 -14 -36 -39 -44 -7 0
-1 -14 -40 -37 -39 -9 0
-1 -14 -40 -44 -39 -5 0
-1 -14 -42 -39 -37 -7 0
-1 -14 -42 -44 -37 -5 0
-1 -15 -37 -36 -42 -9 0
-1 -15 -37 -39 -42 -6 0
-1 -15 -40 -36 -39 -9 0
-1 -15 -40 -42 -39 -5 0
-1 -15 -44 -39 -36 -6 0
-1 -15 -44 -42 -36 -5 0
-1 -17 -39 -36 -40 -7 0
-1 -17 -39 -37 -40 -6 0
-1 -17 -42 -36 -37 -7 0
-1 -17 -42 -40 -37 -5 0
-1 -17 -44 -37 -36 -6 0
-1 -17 -44 -40 -36 -5 0
-5 -13 -14 -40 -44 -9 0
-5 -13 -14 -42 -44 -7 0
-5 -13 -15 -40 -42 -9 0
-5 -13 -15 -44 -42 -6 0
-5 -13 -17 -42 -40 -7 0
-5 -13 -17 -44 -40 -6 0
-5 -36 -14 -15 -44 -9 0
-5 -36 -14 -17 -44 -7 0
-5 -36 -40 -15 -17 -9 0
-5 -36 -42 -17 -15 -7 0
-5 -37 -15 -14 -42 -9 0
-5 -37 -15 -17 -42 -6 0
-5 -37 -40 -14 -17 -9 0
-5 -37 -44 -17 -14 -6 0
-5 -39 -17 -14 -40 -7 0
-5 -39 -17 -15 -40 -6 0
-5 -39 -42 -14 -15 -7 0
-5 -39 -44 -15 -14 -6 0
-6 -14 -13 -37 -44 -9 0
-6 -14 -13 -39 -44 -7 0
-6 -14 -15 -37 -39 -9 0
-6 -14 -17 -39 -37 -7 0
-6 -36 -13 -15 -44 -9 0
-6 -36 -13 -17 -44 -7 0
-6 -36 -37 -15 -17 -9 0
-6 -36 -39 -17 -15 -7 0
-6 -40 -15 -13 -39 -9 0
-6 -40 -37 -13 -17 -9 0
-6 -42 -17 -13 -37 -7 0
-6 -42 -39 -13 -15 -7 0
-7 -15 -13 -36 -42 -9 0
-7 -15 -14 -36 -39 -9 0
-7 -37 -13 -14 -42 -9 0
-7 -37 -36 -14 -17 -9 0
-7 -40 -14 -13 -39 -9 0
-7 -40 -36 -13 -17 -9 0
-1 -13 -36 -41 -45 -9 0
-1 -13 -36 -42 -45 -8 0
-1 -13 -38 -41 -42 -9 0
-1 -13 -38 -45 -42 -6 0
-1 -13 -39 -42 -41 -8 0
-1 -13 -39 -45 -41 -6 0
-1 -14 -36 -38 -45 -9 0
-1 -14 -36 -39 -45 -8 0
-1 -14 -41 -38 -39 -9 0
-1 -14 -41 -45 -39 -5 0
-1 -14 -42 -39 -38 -8 0
-1 -14 -42 -45 -38 -5 0
-1 -16 -38 -36 -42 -9 0
-1 -16 -38 -39 -42 -6 0
-1 -16 -41 -36 -39 -9 0
-1 -16 -41 -42 -39 -5 0
-1 -16 -45 -39 -36 -6 0
-1 -16 -45 -42 -36 -5 0
-1 -17 -39 -36 -41 -8 0
-1 -17 -39 -38 -41 -6 0
-1 -17 -42 -36 -38 -8 0
-1 -17 -42 -41 -38 -5 0
-1 -17 -45 -38 -36 -6 0
-1 -17 -45 -41 -36 -5 0
-5 -13 -14 -41 -45 -9 0
-5 -13 -14 -42 -45 -8 0
-5 -13 -16 -41 -42 -9 0
-5 -13 -16 -45 -42 -6 0
-5 -13 -17 -42 -41 -8 0
-5 -13 -17 -45 -41 -6 0
-5 -36 -14 -16 -45 -9 0
-5 -36 -14 -17 -45 -8 0
-5 -36 -41 -16 -17 -9 0
-5 -36 -42 -17 -16 -8 0
-5 -38 -16 -14 -42 -9 0
-5 -38 -16 -17 -42 -6 0
-5 -38 -41 -14 -17 -9 0
-5 -38 -45 -17 -14 -6 0
-5 -39 -17 -14 -41 -8 0
-5 -39 -17 -16 -41 -6 0
-5 -39 -42 -14 -16 -8 0
-5 -39 -45 -16 -14 -6 0
-6 -14 -13 -38 -45 -9 0
-6 -14 -13 -39 -45 -8 0
-6 -14 -16 -38 -39 -9 0
-6 -14 -17 -39 -38 -8 0
-6 -36 -13 -16 -45 -9 0
-6 -36 -13 -17 -45 -8 0
-6 -36 -38 -16 -17 -9 0
-6 -36 -39 -17 -16 -8 0
-6 -41 -16 -13 -39 -9 0
-6 -41 -38 -13 -17 -9 0
-6 -42 -17 -13 -38 -8 0
-6 -42 -39 -13 -16 -8 0
-8 -16 -13 -36 -42 -9 0
-8 -16 -14 -36 -39 -9 0
-8 -38 -13 -14 -42 -9 0
-8 -38 -36 -14 -17 -9 0
-8 -41 -14 -13 -39 -9 0
-8 -41 -36 -13 -17 -9 0
-1 -13 -37 -43 -45 -9 0
-1 -13 -37 -44 -45 -8 0
-1 -13 -38 -43 -44 -9 0
-1 -13 -38 -45 -44 -7 0
-1 -13 -39 -44 -43 -8 0
-1 -13 -39 -45 -43 -7 0
-1 -15 -37 -38 -45 -9 0
-1 -15 -37 -39 -45 -8 0
-1 -15 -43 -38 -39 -9 0
-1 -15 -43 -45 -39 -5 0
-1 -15 -44 -39 -38 -8 0
-1 -15 -44 -45 -38 -5 0
-1 -16 -38 -37 -44 -9 0
-1 -16 -38 -39 -44 -7 0
-1 -16 -43 -37 -39 -9 0
-1 -16 -43 -44 -39 -5 0
-1 -16 -45 -39 -37 -7 0
-1 -16 -45 -44 -37 -5 0
-1 -17 -39 -37 -43 -8 0
-1 -17 -39 -38 -43 -7 0
-1 -17 -44 -37 -38 -8 0
-1 -17 -44 -43 -38 -5 0
-1 -17 -45 -38 -37 -7 0
-1 -17 -45 -43 -37 -5 0
-5 -13 -15 -43 -45 -9 0
-5 -13 -15 -44 -45 -8 0
-5 -13 -16 -43 -44 -9 0
-5 -13 -16 -45 -44 -7 0
-5 -13 -17 -44 -43 -8 0
-5 -13 -17 -45 -43 -7 0
-5 -37 -15 -16 -45 -9 0
-5 -37 -15 -17 -45 -8 0
-5 -37 -43 -16 -17 -9 0
-5 -37 -44 -17 -16 -8 0
-5 -38 -16 -15 -44 -9 0
-5 -38 -16 -17 -44 -7 0
-5 -38 -43 -15 -17 -9 0
-5 -38 -45 -17 -15 -7 0
-5 -39 -17 -15 -43 -8 0
-5 -39 -17 -16 -43 -7 0
-5 -39 -44 -15 -16 -8 0
-5 -39 -45 -16 -15 -7 0
-7 -15 -13 -38 -45 -9 0
-7 -15 -13 -39 -45 -8 0
-7 -15 -16 -38 -39 -9 0
-7 -15 -17 -39 -38 -8 0
-7 -37 -13 -16 -45 -9 0
-7 -37 -13 -17 -45 -8 0
-7 -37 -38 -16 -17 -9 0
-7 -37 -39 -17 -16 -8 0
-7 -43 -16 -13 -39 -9 0
-7 -43 -38 -13 -17 -9 0
-7 -44 -17 -13 -38 -8 0
-7 -44 -39 -13 -16 -8 0
-8 -16 -13 -37 -44 -9 0
-8 -16 -15 -37 -39 -9 0
-8 -38 -13 -15 -44 -9 0
-8 -38 -37 -15 -17 -9 0
-8 -43 -15 -13 -39 -9 0
-8 -43 -37 -13 -17 -9 0
-1 -14 -40 -43 -45 -9 0
-1 -14 -40 -44 -45 -8 0
-1 -14 -41 -43 -44 -9 0
-1 -14 -41 -45 -44 -7 0
-1 -14 -42 -44 -43 -8 0
-1 -14 -42 -45 -43 -7 0
-1 -15 -40 -41 -45 -9 0
-1 -15 -40 -42 -45 -8 0
-1 -15 -43 -41 -42 -9 0
-1 -15 -43 -45 -42 -6 0
-1 -15 -44 -42 -41 -8 0
-1 -15 -44 -45 -41 -6 0
-1 -16 -41 -40 -44 -9 0
-1 -16 -41 -42 -44 -7 0
-1 -16 -43 -40 -42 -9 0
-1 -16 -43 -44 -42 -6 0
-1 -16 -45 -42 -40 -7 0
-1 -16 -45 -44 -40 -6 0
-1 -17 -42 -40 -43 -8 0
-1 -17 -42 -41 -43 -7 0
-1 -17 -44 -40 -41 -8 0
-1 -17 -44 -43 -41 -6 0
-1 -17 -45 -41 -40 -7 0
-1 -17 -45 -43 -40 -6 0
-6 -14 -15 -43 -45 -9 0
-6 -14 -15 -44 -45 -8 0
-6 -14 -16 -43 -44 -9 0
-6 -14 -16 -45 -44 -7 0
-6 -14 -17 -44 -43 -8 0
-6 -14 -17 -45 -43 -7 0
-6 -40 -15 -16 -45 -9 0
-6 -40 -15 -17 -45 -8 0
-6 -40 -43 -16 -17 -9 0
-6 -40 -44 -17 -16 -8 0
-6 -41 -16 -15 -44 -9 0
-6 -41 -16 -17 -44 -7 0
-6 -41 -43 -15 -17 -9 0
-6 -41 -45 -17 -15 -7 0
-6 -42 -17 -15 -43 -8 0
-6 -42 -17 -16 -43 -7 0
-6 -42 -44 -15 -16 -8 0
-6 -42 -45 -16 -15 -7 0
-7 -15 -14 -41 -45 -9 0
-7 -15 -14 -42 -45 -8 0
-7 -15 -16 -41 -42 -9 0
-7 -15 -17 -42 -41 -8 0
-7 -40 -14 -16 -45 -9 0
-7 -40 -14 -17 -45 -8 0
-7 -40 -41 -16 -17 -9 0
-7 -40 -42 -17 -16 -8 0
-7 -43 -16 -14 -42 -9 0
-7 -43 -41 -14 -17 -9 0
-7 -44 -17 -14 -41 -8 0
-7 -44 -42 -14 -16 -8 0
-8 -16 -14 -40 -44 -9 0
-8 -16 -15 -40 -42 -9 0
-8 -41 -14 -15 -44 -9 0
-8 -41 -40 -15 -17 -9 0
-8 -43 -15 -14 -42 -9 0
-8 -43 -40 -14 -17 -9 0
-2 -18 -25 -31 -36 -6 0
-2 -18 -25 -32 -36 -5 0
-2 -18 -26 -31 -32 -6 0
-2 -18 -26 -36 -32 -4 0
-2 -18 -27 -32 -31 -5 0
-2 -18 -27 -36 -31 -4 0
-2 -19 -25 -26 -36 -6 0
-2 -19 -25 -27 -36 -5 0
-2 -19 -31 -26 -27 -6 0
-2 -19 -31 -36 -27 -3 0
-2 -19 -32 -27 -26 -5 0
-2 -19 -32 -36 -26 -3 0
-2 -20 -26 -25 -32 -6 0
-2 -20 -26 -27 -32 -4 0
-2 -20 -31 -25 -27 -6 0
-2 -20 -31 -32 -27 -3 0
-2 -20 -36 -27 -25 -4 0
-2 -20 -36 -32 -25 -3 0
-2 -21 -27 -25 -31 -5 0
-2 -21 -27 -26 -31 -4 0
-2 -21 -32 -25 -26 -5 0
-2 -21 -32 -31 -26 -3 0
-2 -21 -36 -26 -25 -4 0
-2 -21 -36 -31 -25 -3 0
-3 -18 -19 -31 -36 -6 0
-3 -18 -19 -32 -36 -5 0
-3 -18 -20 -31 -32 -6 0
-3 -18 -20 -36 -32 -4 0
-3 -18 -21 -32 -31 -5 0
-3 -18 -21 -36 -31 -4 0
-3 -25 -19 -20 -36 -6 0
-3 -25 -19 -21 -36 -5 0
-3 -25 -31 -20 -21 -6 0
-3 -25 -32 -21 -20 -5 0
-3 -26 -20 -19 -32 -6 0
-3 -26 -20 -21 -32 -4 0
-3 -26 -31 -19 -21 -6 0
-3 -26 -36 -21 -19 -4 0
-3 -27 -21 -19 -31 -5 0
-3 -27 -21 -20 -31 -4 0
-3 -27 -32 -19 -20 -5 0
-3 -27 -36 -20 -19 -4 0
-4 -19 -18 -26 -36 -6 0
-4 -19 -18 -27 -36 -5 0
-4 -19 -20 -26 -27 -6 0
-4 -19 -21 -27 -26 -5 0
-4 -25 -18 -20 -36 -6 0
-4 -25 -18 -21 -36 -5 0
-4 -25 -26 -20 -21 -6 0
-4 -25 -27 -21 -20 -5 0
-4 -31 -20 -18 -27 -6 0
-4 -31 -26 -18 -21 -6 0
-4 -32 -21 -18 -26 -5 0
-4 -32 -27 -18 -20 -5 0
-5 -20 -18 -25 -32 -6 0
-5 -20 -19 -25 -27 -6 0
-5 -26 -18 -19 -32 -6 0
-5 -26 -25 -19 -21 -6 0
-5 -31 -19 -18 -27 -6 0
-5 -31 -25 -18 -21 -6 0
-2 -18 -25 -31 -37 -7 0
-2 -18 -25 -33 -37 -5 0
-2 -18 -26 -31 -33 -7 0
-2 -18 -26 -37 -33 -4 0
-2 -18 -28 -33 -31 -5 0
-2 -18 -28 -37 -31 -4 0
-2 -19 -25 -26 -37 -7 0
-2 -19 -25 -28 -37 -5 0
-2 -19 -31 -26 -28 -7 0
-2 -19 -31 -37 -28 -3 0
-2 -19 -33 -28 -26 -5 0
-2 -19 -33 -37 -26 -3 0
-2 -20 -26 -25 -33 -7 0
-2 -20 -26 -28 -33 -4 0
-2 -20 -31 -25 -28 -7 0
-2 -20 -31 -33 -28 -3 0
-2 -20 -37 -28 -25 -4 0
-2 -20 -37 -33 -25 -3 0
-2 -22 -28 -25 -31 -5 0
-2 -22 -28 -26 -31 -4 0
-2 -22 -33 -25 -26 -5 0
-2 -22 -33 -31 -26 -3 0
-2 -22 -37 -26 -25 -4 0
-2 -22 -37 -31 -25 -3 0
-3 -18 -19 -31 -37 -7 0
-3 -18 -19 -33 -37 -5 0
-3 -18 -20 -31 -33 -7 0
-3 -18 -20 -37 -33 -4 0
-3 -18 -22 -33 -31 -5 0
-3 -18 -22 -37 -31 -4 0
-3 -25 -19 -20 -37 -7 0
-3 -25 -19 -22 -37 -5 0
-3 -25 -31 -20 -22 -7 0
-3 -25 -33 -22 -20 -5 0
-3 -26 -20 -19 -33 -7 0
-3 -26 -20 -22 -33 -4 0
-3 -26 -31 -19 -22 -7 0
-3 -26 -37 -22 -19 -4 0
-3 -28 -22 -19 -31 -5 0
-3 -28 -22 -20 -31 -4 0
-3 -28 -33 -19 -20 -5 0
-3 -28 -37 -20 -19 -4 0
-4 -19 -18 -26 -37 -7 0
-4 -19 -18 -28 -37 -5 0
-4 -19 -20 -26 -28 -7 0
-4 -19 -22 -28 -26 -5 0
-4 -25 -18 -20 -37 -7 0
-4 -25 -18 -22 -37 -5 0
-4 -25 -26 -20 -22 -7 0
-4 -25 -28 -22 -20 -5 0
-4 -31 -20 -18 -28 -7 0
-4 -31 -26 -18 -22 -7 0
-4 -33 -22 -18 -26 -5 0
-4 -33 -28 -18 -20 -5 0
-5 -20 -18 -25 -33 -7 0
-5 -20 -19 -25 -28 -7 0
-5 -26 -18 -19 -33 -7 0
-5 -26 -25 -19 -22 -7 0
-5 -31 -19 -18 -28 -7 0
-5 -31 -25 -18 -22 -7 0
-2 -18 -25 -31 -38 -8 0
-2 -18 -25 -34 -38 -5 0
-2 -18 -26 -31 -34 -8 0
-2 -18 -26 -38 -34 -4 0
-2 -18 -29 -34 -31 -5 0
-2 -18 -29 -38 -31 -4 0
-2 -19 -25 -26 -38 -8 0
-2 -19 -25 -29 -38 -5 0
-2 -19 -31 -26 -29 -8 0
-2 -19 -31 -38 -29 -3 0
-2 -19 -34 -29 -26 -5 0
-2 -19 -34 -38 -26 -3 0
-2 -20 -26 -25 -34 -8 0
-2 -20 -26 -29 -34 -4 0
-2 -20 -31 -25 -29 -8 0
-2 -20 -31 -34 -29 -3 0
-2 -20 -38 -29 -25 -4 0
-2 -20 -38 -34 -25 -3 0
-2 -23 -29 -25 -31 -5 0
-2 -23 -29 -26 -31 -4 0
-2 -23 -34 -25 -26 -5 0
-2 -23 -34 -31 -26 -3 0
-2 -23 -38 -26 -25 -4 0
-2 -23 -38 -31 -25 -3 0
-3 -18 -19 -31 -38 -8 0
-3 -18 -19 -34 -38 -5 0
-3 -18 -20 -31 -34 -8 0
-3 -18 -20 -38 -34 -4 0
-3 -18 -23 -34 -31 -5 0
-3 -18 -23 -38 -31 -4 0
-3 -25 -19 -20 -38 -8 0
-3 -25 -19 -23 -38 -5 0
-3 -25 -31 -20 -23 -8 0
-3 -25 -34 -23 -20 -5 0
-3 -26 -20 -19 -34 -8 0
-3 -26 -20 -23 -34 -4 0
-3 -26 -31 -19 -23 -8 0
-3 -26 -38 -23 -19 -4 0
-3 -29 -23 -19 -31 -5 0
-3 -29 -23 -20 -31 -4 0
-3 -29 -34 -19 -20 -5 0
-3 -29 -38 -20 -19 -4 0
-4 -19 -18 -26 -38 -8 0
-4 -19 -18 -29 -38 -5 0
-4 -19 -20 -26 -29 -8 0
-4 -19 -23 -29 -26 -5 0
-4 -25 -18 -20 -38 -8 0
-4 -25 -18 -23 -38 -5 0
-4 -25 -26 -20 -23 -8 0
-4 -25 -29 -23 -20 -5 0
-4 -31 -20 -18 -29 -8 0
-4 -31 -26 -18 -23 -8 0
-4 -34 -23 -18 -26 -5 0
-4 -34 -29 -18 -20 -5 0
-5 -20 -18 -25 -34 -8 0
-5 -20 -19 -25 -29 -8 0
-5 -26 -18 -19 -34 -8 0
-5 -26 -25 -19 -23 -8 0
-5 -31 -19 -18 -29 -8 0
-5 -31 -25 -18 -23 -8 0
-2 -18 -25 -31 -39 -9 0
-2 -18 -25 -35 -39 -5 0
-2 -18 -26 -31 -35 -9 0
-2 -18 -26 -39 -35 -4 0
-2 -18 -30 -35 -31 -5 0
-2 -18 -30 -39 -31 -4 0
-2 -19 -25 -26 -39 -9 0
-2 -19 -25 -30 -39 -5 0
-2 -19 -31 -26 -30 -9 0
-2 -19 -31 -39 -30 -3 0
-2 -19 -35 -30 -26 -5 0
-2 -19 -35 -39 -26 -3 0
-2 -20 -26 -25 -35 -9 0
-2 -20 -26 -30 -35 -4 0
-2 -20 -31 -25 -30 -9 0
-2 -20 -31 -35 -30 -3 0
-2 -20 -39 -30 -25 -4 0
-2 -20 -39 -35 -25 -3 0
-2 -24 -30 -25 -31 -5 0
-2 -24 -30 -26 -31 -4 0
-2 -24 -35 -25 -26 -5 0
-2 -24 -35 -31 -26 -3 0
-2 -24 -39 -26 -25 -4 0
-2 -24 -39 -31 -25 -3 0
-3 -18 -19 -31 -39 -9 0
-3 -18 -19 -35 -39 -5 0
-3 -18 -20 -31 -35 -9 0
-3 -18 -20 -39 -35 -4 0
-3 -18 -24 -35 -31 -5 0
-3 -18 -24 -39 -31 -4 0
-3 -25 -19 -20 -39 -9 0
-3 -25 -19 -24 -39 -5 0
-3 -25 -31 -20 -24 -9 0
-3 -25 -35 -24 -20 -5 0
-3 -26 -20 -19 -35 -9 0
-3 -26 -20 -24 -35 -4 0
-3 -26 -31 -19 -24 -9 0
-3 -26 -39 -24 -19 -4 0
-3 -30 -24 -19 -31 -5 0
-3 -30 -24 -20 -31 -4 0
-3 -30 -35 -19 -20 -5 0
-3 -30 -39 -20 -19 -4 0
-4 -19 -18 -26 -39 -9 0
-4 -19 -18 -30 -39 -5 0
-4 -19 -20 -26 -30 -9 0
-4 -19 -24 -30 -26 -5 0
-4 -25 -18 -20 -39 -9 0
-4 -25 -18 -24 -39 -5 0
-4 -25 -26 -20 -24 -9 0
-4 -25 -30 -24 -20 -5 0
-4 -31 -20 -18 -30 -9 0
-4 -31 -26 -18 -24 -9 0
-4 -35 -24 -18 -26 -5 0
-4 -35 -30 -18 -20 -5 0
-5 -20 -18 -25 -35 -9 0
-5 -20 -19 -25 -30 -9 0
-5 -26 -18 -19 -35 -9 0
-5 -26 -25 -19 -24 -9 0
-5 -31 -19 -18 -30 -9 0
-5 -31 -25 -18 -24 -9 0
-2 -18 -25 -32 -40 -7 0
-2 -18 -25 -33 -40 -6 0
-2 -18 -27 -32 -33 -7 0
-2 -18 -27 -40 -33 -4 0
-2 -18 -28 -33 -32 -6 0
-2 -18 -28 -40 -32 -4 0
-2 -19 -25 -27 -40 -7 0
-2 -19 -25 -28 -40 -6 0
-2 -19 -32 -27 -28 -7 0
-2 -19 -32 -40 -28 -3 0
-2 -19 -33 -28 -27 -6 0
-2 -19 -33 -40 -27 -3 0
-2 -21 -27 -25 -33 -7 0
-2 -21 -27 -28 -33 -4 0
-2 -21 -32 -25 -28 -7 0
-2 -21 -32 -33 -28 -3 0
-2 -21 -40 -28 -25 -4 0
-2 -21 -40 -33 -25 -3 0
-2 -22 -28 -25 -32 -6 0
-2 -22 -28 -27 -32 -4 0
-2 -22 -33 -25 -27 -6 0
-2 -22 -33 -32 -27 -3 0
-2 -22 -40 -27 -25 -4 0
-2 -22 -40 -32 -25 -3 0
-3 -18 -19 -32 -40 -7 0
-3 -18 -19 -33 -40 -6 0
-3 -18 -21 -32 -33 -7 0
-3 -18 -21 -40 -33 -4 0
-3 -18 -22 -33 -32 -6 0
-3 -18 -22 -40 -32 -4 0
-3 -25 -19 -21 -40 -7 0
-3 -25 -19 -22 -40 -6 0
-3 -25 -32 -21 -22 -7 0
-3 -25 -33 -22 -21 -6 0
-3 -27 -21 -19 -33 -7 0
-3 -27 -21 -22 -33 -4 0
-3 -27 -32 -19 -22 -7 0
-3 -27 -40 -22 -19 -4 0
-3 -28 -22 -19 -32 -6 0
-3 -28 -22 -21 -32 -4 0
-3 -28 -33 -19 -21 -6 0
-3 -28 -40 -21 -19 -4 0
-4 -19 -18 -27 -40 -7 0
-4 -19 -18 -28 -40 -6 0
-4 -19 -21 -27 -28 -7 0
-4 -19 -22 -28 -27 -6 0
-4 -25 -18 -21 -40 -7 0
-4 -25 -18 -22 -40 -6 0
-4 -25 -27 -21 -22 -7 0
-4 -25 -28 -22 -21 -6 0
-4 -32 -21 -18 -28 -7 0
-4 -32 -27 -18 -22 -7 0
-4 -33 -22 -18 -27 -6 0
-4 -33 -28 -18 -21 -6 0
-6 -21 -18 -25 -33 -7 0
-6 -21 -19 -25 -28 -7 0
-6 -27 -18 -19 -33 -7 0
-6 -27 -25 -19 -22 -7 0
-6 -32 -19 -18 -28 -7 0
-6 -32 -25 -18 -22 -7 0
-2 -18 -25 -32 -41 -8 0
-2 -18 -25 -34 -41 -6 0
-2 -18 -27 -32 -34 -8 0
-2 -18 -27 -41 -34 -4 0
-2 -18 -29 -34 -32 -6 0
-2 -18 -29 -41 -32 -4 0
-2 -19 -25 -27 -41 -8 0
-2 -19 -25 -29 -41 -6 0
-2 -19 -32 -27 -29 -8 0
-2 -19 -32 -41 -29 -3 0
-2 -19 -34 -29 -27 -6 0
-2 -19 -34 -41 -27 -3 0
-2 -21 -27 -25 -34 -8 0
-2 -21 -27 -29 -34 -4 0
-2 -21 -32 -25 -29 -8 0
-2 -21 -32 -34 -29 -3 0
-2 -21 -41 -29 -25 -4 0
-2 -21 -41 -34 -25 -3 0
-2 -23 -29 -25 -32 -6 0
-2 -23 -29 -27 -32 -4 0
-2 -23 -34 -25 -27 -6 0
-2 -23 -34 -32 -27 -3 0
-2 -23 -41 -27 -25 -4 0
-2 -23 -41 -32 -25 -3 0
-3 -18 -19 -32 -41 -8 0
-3 -18 -19 -34 -41 -6 0
-3 -18 -21 -32 -34 -8 0
-3 -18 -21 -41 -34 -4 0
-3 -18 -23 -34 -32 -6 0
-3 -18 -23 -41 -32 -4 0
-3 -25 -19 -21 -41 -8 0
-3 -25 -19 -23 -41 -6 0
-3 -25 -32 -21 -23 -8 0
-3 -25 -34 -23 -21 -6 0
-3 -27 -21 -19 -34 -8 0
-3 -27 -21 -23 -34 -4 0
-3 -27 -32 -19 -23 -8 0
-3 -27 -41 -23 -19 -4 0
-3 -29 -23 -19 -32 -6 0
-3 -29 -23 -21 -32 -4 0
-3 -29 -34 -19 -21 -6 0
-3 -29 -41 -21 -19 -4 0
-4 -19 -18 -27 -41 -8 0
-4 -19 -18 -29 -41 -6 0
-4 -19 -21 -27 -29 -8 0
-4 -19 -23 -29 -27 -6 0
-4 -25 -18 -21 -41 -8 0
-4 -25 -18 -23 -41 -6 0
-4 -25 -27 -21 -23 -8 0
-4 -25 -29 -23 -21 -6 0
-4 -32 -21 -18 -29 -8 0
-4 -32 -27 -18 -23 -8 0
-4 -34 -23 -18 -27 -6 0
-4 -34 -29 -18 -21 -6 0
-6 -21 -18 -25 -34 -8 0
-6 -21 -19 -25 -29 -8 0
-6 -27 -18 -19 -34 -8 0
-6 -27 -25 -19 -23 -8 0
-6 -32 -19 -18 -29 -8 0
-6 -32 -25 -18 -23 -8 0
-2 -18 -25 -32 -42 -9 0
-2 -18 -25 -35 -42 -6 0
-2 -18 -27 -32 -35 -9 0
-2 -18 -27 -42 -35 -4 0
-2 -18 -30 -35 -32 -6 0
-2 -18 -30 -42 -32 -4 0
-2 -19 -25 -27 -42 -9 0
-2 -19 -25 -30 -42 -6 0
-2 -19 -32 -27 -30 -9 0
-2 -19 -32 -42 -30 -3 0
-2 -19 -35 -30 -27 -6 0
-2 -19 -35 -42 -27 -3 0
-2 -21 -27 -25 -35 -9 0
-2 -21 -27 -30 -35 -4 0
-2 -21 -32 -25 -30 -9 0
-2 -21 -32 -35 -30 -3 0
-2 -21 -42 -30 -25 -4 0
-2 -21 -42 -35 -25 -3 0
-2 -24 -30 -25 -32 -6 0
-2 -24 -30 -27 -32 -4 0
-2 -24 -35 -25 -27 -6 0
-2 -24 -35 -32 -27 -3 0
-2 -24 -42 -27 -25 -4 0
-2 -24 -42 -32 -25 -3 0
-3 -18 -19 -32 -42 -9 0
-3 -18 -19 -35 -42 -6 0
-3 -18 -21 -32 -35 -9 0
-3 -18 -21 -42 -35 -4 0
-3 -18 -24 -35 -32 -6 0
-3 -18 -24 -42 -32 -4 0
-3 -25 -19 -21 -42 -9 0
-3 -25 -19 -24 -42 -6 0
-3 -25 -32 -21 -24 -9 0
-3 -25 -35 -24 -21 -6 0
-3 -27 -21 -19 -35 -9 0
-3 -27 -21 -24 -35 -4 0
-3 -27 -32 -19 -24 -9 0
-3 -27 -42 -24 -19 -4 0
-3 -30 -24 -19 -32 -6 0
-3 -30 -24 -21 -32 -4 0
-3 -30 -35 -19 -21 -6 0
-3 -30 -42 -21 -19 -4 0
-4 -19 -18 -27 -42 -9 0
-4 -19 -18 -30 -42 -6 0
-4 -19 -21 -27 -30 -9 0
-4 -19 -24 -30 -27 -6 0
-4 -25 -18 -21 -42 -9 0
-4 -25 -18 -24 -42 -6 0
-4 -25 -27 -21 -24 -9 0
-4 -25 -30 -24 -21 -6 0
-4 -32 -21 -18 -30 -9 0
-4 -32 -27 -18 -24 -9 0
-4 -35 -24 -18 -27 -6 0
-4 -35 -30 -18 -21 -6 0
-6 -21 -18 -25 -35 -9 0
-6 -21 -19 -25 -30 -9 0
-6 -27 -18 -19 -35 -9 0
-6 -27 -25 -19 -24 -9 0
-6 -32 -19 -18 -30 -9 0
-6 -32 -25 -18 -24 -9 0
-2 -18 -25 -33 -43 -8 0
-2 -18 -25 -34 -43 -7 0
-2 -18 -28 -33 -34 -8 0
-2 -18 -28 -43 -34 -4 0
-2 -18 -29 -34 -33 -7 0
-2 -18 -29 -43 -33 -4 0
-2 -19 -25 -28 -43 -8 0
-2 -19 -25 -29 -43 -7 0
-2 -19 -33 -28 -29 -8 0
-2 -19 -33 -43 -29 -3 0
-2 -19 -34 -29 -28 -7 0
-2 -19 -34 -43 -28 -3 0
-2 -22 -28 -25 -34 -8 0
-2 -22 -28 -29 -34 -4 0
-2 -22 -33 -25 -29 -8 0
-2 -22 -33 -34 -29 -3 0
-2 -22 -43 -29 -25 -4 0
-2 -22 -43 -34 -25 -3 0
-2 -23 -29 -25 -33 -7 0
-2 -23 -29 -28 -33 -4 0
-2 -23 -34 -25 -28 -7 0
-2 -23 -34 -33 -28 -3 0
-2 -23 -43 -28 -25 -4 0
-2 -23 -43 -33 -25 -3 0
-3 -18 -19 -33 -43 -8 0
-3 -18 -19 -34 -43 -7 0
-3 -18 -22 -33 -34 -8 0
-3 -18 -22 -43 -34 -4 0
-3 -18 -23 -34 -33 -7 0
-3 -18 -23 -43 -33 -4 0
-3 -25 -19 -22 -43 -8 0
-3 -25 -19 -23 -43 -7 0
-3 -25 -33 -22 -23 -8 0
-3 -25 -34 -23 -22 -7 0
-3 -28 -22 -19 -34 -8 0
-3 -28 -22 -23 -34 -4 0
-3 -28 -33 -19 -23 -8 0
-3 -28 -43 -23 -19 -4 0
-3 -29 -23 -19 -33 -7 0
-3 -29 -23 -22 -33 -4 0
-3 -29 -34 -19 -22 -7 0
-3 -29 -43 -22 -19 -4 0
-4 -19 -18 -28 -43 -8 0
-4 -19 -18 -29 -43 -7 0
-4 -19 -22 -28 -29 -8 0
-4 -19 -23 -29 -28 -7 0
-4 -25 -18 -22 -43 -8 0
-4 -25 -18 -23 -43 -7 0
-4 -25 -28 -22 -23 -8 0
-4 -25 -29 -23 -22 -7 0
-4 -33 -22 -18 -29 -8 0
-4 -33 -28 -18 -23 -8 0
-4 -34 -23 -18 -28 -7 0
-4 -34 -29 -18 -22 -7 0
-7 -22 -18 -25 -34 -8 0
-7 -22 -19 -25 -29 -8 0
-7 -28 -18 -19 -34 -8 0
-7 -28 -25 -19 -23 -8 0
-7 -33 -19 -18 -29 -8 0
-7 -33 -25 -18 -23 -8 0
-2 -18 -25 -33 -44 -9 0
-2 -18 -25 -35 -44 -7 0
-2 -18 -28 -33 -35 -9 0
-2 -18 -28 -44 -35 -4 0
-2 -18 -30 -35 -33 -7 0
-2 -18 -30 -44 -33 -4 0
-2 -19 -25 -28 -44 -9 0
-2 -19 -25 -30 -44 -7 0
-2 -19 -33 -28 -30 -9 0
-2 -19 -33 -44 -30 -3 0
-2 -19 -35 -30 -28 -7 0
-2 -19 -35 -44 -28 -3 0
-2 -22 -28 -25 -35 -9 0
-2 -22 -28 -30 -35 -4 0
-2 -22 -33 -25 -30 -9 0
-2 -22 -33 -35 -30 -3 0
-2 -22 -44 -30 -25 -4 0
-2 -22 -44 -35 -25 -3 0
-2 -24 -30 -25 -33 -7 0
-2 -24 -30 -28 -33 -4 0
-2 -24 -35 -25 -28 -7 0
-2 -24 -35 -33 -28 -3 0
-2 -24 -44 -28 -25 -4 0
-2 -24 -44 -33 -25 -3 0
-3 -18 -19 -33 -44 -9 0
-3 -18 -19 -35 -44 -7 0
-3 -18 -22 -33 -35 -9 0
-3 -18 -22 -44 -35 -4 0
-3 -18 -24 -35 -33 -7 0
-3 -18 -24 -44 -33 -4 0
-3 -25 -19 -22 -44 -9 0
-3 -25 -19 -24 -44 -7 0
-3 -25 -33 -22 -24 -9 0
-3 -25 -35 -24 -22 -7 0
-3 -28 -22 -19 -35 -9 0
-3 -28 -22 -24 -35 -4 0
-3 -28 -33 -19 -24 -9 0
-3 -28 -44 -24 -19 -4 0
-3 -30 -24 -19 -33 -7 0
-3 -30 -24 -22 -33 -4 0
-3 -30 -35 -19 -22 -7 0
-3 -30 -44 -22 -19 -4 0
-4 -19 -18 -28 -44 -9 0
-4 -19 -18 -30 -44 -7 0
-4 -19 -22 -28 -30 -9 0
-4 -19 -24 -30 -28 -7 0
-4 -25 -18 -22 -44 -9 0
-4 -25 -18 -24 -44 -7 0
-4 -25 -28 -22 -24 -9 0
-4 -25 -30 -24 -22 -7 0
-4 -33 -22 -18 -30 -9 0
-4 -33 -28 -18 -24 -9 0
-4 -35 -24 -18 -28 -7 0
-4 -35 -30 -18 -22 -7 0
-7 -22 -18 -25 -35 -9 0
-7 -22 -19 -25 -30 -9 0
-7 -28 -18 -19 -35 -9 0
-7 -28 -25 -19 -24 -9 0
-7 -33 -19 -18 -30 -9 0
-7 -33 -25 -18 -24 -9 0
-2 -18 -25 -34 -45 -9 0
-2 -18 -25 -35 -45 -8 0
-2 -18 -29 -34 -35 -9 0
-2 -18 -29 -45 -35 -4 0
-2 -18 -30 -35 -34 -8 0
-2 -18 -30 -45 -34 -4 0
-2 -19 -25 -29 -45 -9 0
-2 -19 -25 -30 -45 -8 0
-2 -19 -34 -29 -30 -9 0
-2 -19 -34 -45 -30 -3 0
-2 -19 -35 -30 -29 -8 0
-2 -19 -35 -45 -29 -3 0
-2 -23 -29 -25 -35 -9 0
-2 -23 -29 -30 -35 -4 0
-2 -23 -34 -25 -30 -9 0
-2 -23 -34 -35 -30 -3 0
-2 -23 -45 -30 -25 -4 0
-2 -23 -45 -35 -25 -3 0
-2 -24 -30 -25 -34 -8 0
-2 -24 -30 -29 -34 -4 0
-2 -24 -35 -25 -29 -8 0
-2 -24 -35 -34 -29 -3 0
-2 -24 -45 -29 -25 -4 0
-2 -24 -45 -34 -25 -3 0
-3 -18 -19 -34 -45 -9 0
-3 -18 -19 -35 -45 -8 0
-3 -18 -23 -34 -35 -9 0
-3 -18 -23 -45 -35 -4 0
-3 -18 -24 -35 -34 -8 0
-3 -18 -24 -45 -34 -4 0
-3 -25 -19 -23 -45 -9 0
-3 -25 -19 -24 -45 -8 0
-3 -25 -34 -23 -24 -9 0
-3 -25 -35 -24 -23 -8 0
-3 -29 -23 -19 -35 -9 0
-3 -29 -23 -24 -35 -4 0
-3 -29 -34 -19 -24 -9 0
-3 -29 -45 -24 -19 -4 0
-3 -30 -24 -19 -34 -8 0
-3 -30 -24 -23 -34 -4 0
-3 -30 -35 -19 -23 -8 0
-3 -30 -45 -23 -19 -4 0
-4 -19 -18 -29 -45 -9 0
-4 -19 -18 -30 -45 -8 0
-4 -19 -23 -29 -30 -9 0
-4 -19 -24 -30 -29 -8 0
-4 -25 -18 -23 -45 -9 0
-4 -25 -18 -24 -45 -8 0
-4 -25 -29 -23 -24 -9 0
-4 -25 -30 -24 -23 -8 0
-4 -34 -23 -18 -30 -9 0
-4 -34 -29 -18 -24 -9 0
-4 -35 -24 -18 -29 -8 0
-4 -35 -30 -18 -23 -8 0
-8 -23 -18 -25 -35 -9 0
-8 -23 -19 -25 -30 -9 0
-8 -29 -18 -19 -35 -9 0
-8 -29 -25 -19 -24 -9 0
-8 -34 -19 -18 -30 -9 0
-8 -34 -25 -18 -24 -9 0
-2 -18 -26 -36 -40 -7 0
-2 -18 -26 -37 -40 -6 0
-2 -18 -27 -36 -37 -7 0
-2 -18 -27 -40 -37 -5 0
-2 -18 -28 -37 -36 -6 0
-2 -18 -28 -40 -36 -5 0
-2 -20 -26 -27 -40 -7 0
-2 -20 -26 -28 -40 -6 0
-2 -20 -36 -27 -28 -7 0
-2 -20 -36 -40 -28 -3 0
-2 -20 -37 -28 -27 -6 0
-2 -20 -37 -40 -27 -3 0
-2 -21 -27 -26 -37 -7 0
-2 -21 -27 -28 -37 -5 0
-2 -21 -36 -26 -28 -7 0
-2 -21 -36 -37 -28 -3 0
-2 -21 -40 -28 -26 -5 0
-2 -21 -40 -37 -26 -3 0
-2 -22 -28 -26 -36 -6 0
-2 -22 -28 -27 -36 -5 0
-2 -22 -37 -26 -27 -6 0
-2 -22 -37 -36 -27 -3 0
-2 -22 -40 -27 -26 -5 0
-2 -22 -40 -36 -26 -3 0
-3 -18 -20 -36 -40 -7 0
-3 -18 -20 -37 -40 -6 0
-3 -18 -21 -36 -37 -7 0
-3 -18 -21 -40 -37 -5 0
-3 -18 -22 -37 -36 -6 0
-3 -18 -22 -40 -36 -5 0
-3 -26 -20 -21 -40 -7 0
-3 -26 -20 -22 -40 -6 0
-3 -26 -36 -21 -22 -7 0
-3 -26 -37 -22 -21 -6 0
-3 -27 -21 -20 -37 -7 0
-3 -27 -21 -22 -37 -5 0
-3 -27 -36 -20 -22 -7 0
-3 -27 -40 -22 -20 -5 0
-3 -28 -22 -20 -36 -6 0
-3 -28 -22 -21 -36 -5 0
-3 -28 -37 -20 -21 -6 0
-3 -28 -40 -21 -20 -5 0
-5 -20 -18 -27 -40 -7 0
-5 -20 -18 -28 -40 -6 0
-5 -20 -21 -27 -28 -7 0
-5 -20 -22 -28 -27 -6 0
-5 -26 -18 -21 -40 -7 0
-5 -26 -18 -22 -40 -6 0
-5 -26 -27 -21 -22 -7 0
-5 -26 -28 -22 -21 -6 0
-5 -36 -21 -18 -28 -7 0
-5 -36 -27 -18 -22 -7 0
-5 -37 -22 -18 -27 -6 0
-5 -37 -28 -18 -21 -6 0
-6 -21 -18 -26 -37 -7 0
-6 -21 -20 -26 -28 -7 0
-6 -27 -18 -20 -37 -7 0
-6 -27 -26 -20 -22 -7 0
-6 -36 -20 -18 -28 -7 0
-6 -36 -26 -18 -22 -7 0
-2 -18 -26 -36 -41 -8 0
-2 -18 -26 -38 -41 -6 0
-2 -18 -27 -36 -38 -8 0
-2 -18 -27 -41 -38 -5 0
-2 -18 -29 -38 -36 -6 0
-2 -18 -29 -41 -36 -5 0
-2 -20 -26 -27 -41 -8 0
-2 -20 -26 -29 -41 -6 0
-2 -20 -36 -27 -29 -8 0
-2 -20 -36 -41 -29 -3 0
-2 -20 -38 -29 -27 -6 0
-2 -20 -38 -41 -27 -3 0
-2 -21 -27 -26 -38 -8 0
-2 -21 -27 -29 -38 -5 0
-2 -21 -36 -26 -29 -8 0
-2 -21 -36 -38 -29 -3 0
-2 -21 -41 -29 -26 -5 0
-2 -21 -41 -38 -26 -3 0
-2 -23 -29 -26 -36 -6 0
-2 -23 -29 -27 -36 -5 0
-2 -23 -38 -26 -27 -6 0
-2 -23 -38 -36 -27 -3 0
-2 -23 -41 -27 -26 -5 0
-2 -23 -41 -36 -26 -3 0
-3 -18 -20 -36 -41 -8 0
-3 -18 -20 -38 -41 -6 0
-3 -18 -21 -36 -38 -8 0
-3 -18 -21 -41 -38 -5 0
-3 -18 -23 -38 -36 -6 0
-3 -18 -23 -41 -36 -5 0
-3 -26 -20 -21 -41 -8 0
-3 -26 -20 -23 -41 -6 0
-3 -26 -36 -21 -23 -8 0
-3 -26 -38 -23 -21 -6 0
-3 -27 -21 -20 -38 -8 0
-3 -27 -21 -23 -38 -5 0
-3 -27 -36 -20 -23 -8 0
-3 -27 -41 -23 -20 -5 0
-3 -29 -23 -20 -36 -6 0
-3 -29 -23 -21 -36 -5 0
-3 -29 -38 -20 -21 -6 0
-3 -29 -41 -21 -20 -5 0
-5 -20 -18 -27 -41 -8 0
-5 -20 -18 -29 -41 -6 0
-5 -20 -21 -27 -29 -8 0
-5 -20 -23 -29 -27 -6 0
-5 -26 -18 -21 -41 -8 0
-5 -26 -18 -23 -41 -6 0
-5 -26 -27 -21 -23 -8 0
-5 -26 -29 -23 -21 -6 0
-5 -36 -21 -18 -29 -8 0
-5 -36 -27 -18 -23 -8 0
-5 -38 -23 -18 -27 -6 0
-5 -38 -29 -18 -21 -6 0
-6 -21 -18 -26 -38 -8 0
-6 -21 -20 -26 -29 -8 0
-6 -27 -18 -20 -38 -8 0
-6 -27 -26 -20 -23 -8 0
-6 -36 -20 -18 -29 -8 0
-6 -36 -26 -18 -23 -8 0
-2 -18 -26 -36 -42 -9 0
-2 -18 -26 -39 -42 -6 0
-2 -18 -27 -36 -39 -9 0
-2 -18 -27 -42 -39 -5 0
-2 -18 -30 -39 -36 -6 0
-2 -18 -30 -42 -36 -5 0
-2 -20 -26 -27 -42 -9 0
-2 -20 -26 -30 -42 -6 0
-2 -20 -36 -27 -30 -9 0
-2 -20 -36 -42 -30 -3 0
-2 -20 -39 -30 -27 -6 0
-2 -20 -39 -42 -27 -3 0
-2 -21 -27 -26 -39 -9 0
-2 -21 -27 -30 -39 -5 0
-2 -21 -36 -26 -30 -9 0
-2 -21 -36 -39 -30 -3 0
-2 -21 -42 -30 -26 -5 0
-2 -21 -42 -39 -26 -3 0
-2 -24 -30 -26 -36 -6 0
-2 -24 -30 -27 -36 -5 0
-2 -24 -39 -26 -27 -6 0
-2 -24 -39 -36 -27 -3 0
-2 -24 -42 -27 -26 -5 0
-2 -24 -42 -36 -26 -3 0
-3 -18 -20 -36 -42 -9 0
-3 -18 -20 -39 -42 -6 0
-3 -18 -21 -36 -39 -9 0
-3 -18 -21 -42 -39 -5 0
-3 -18 -24 -39 -36 -6 0
-3 -18 -24 -42 -36 -5 0
-3 -26 -20 -21 -42 -9 0
-3 -26 -20 -24 -42 -6 0
-3 -26 -36 -21 -24 -9 0
-3 -26 -39 -24 -21 -6 0
-3 -27 -21 -20 -39 -9 0
-3 -27 -21 -24 -39 -5 0
-3 -27 -36 -20 -24 -9 0
-3 -27 -42 -24 -20 -5 0
-3 -30 -24 -20 -36 -6 0
-3 -30 -24 -21 -36 -5 0
-3 -30 -39 -20 -21 -6 0
-3 -30 -42 -21 -20 -5 0
-5 -20 -18 -27 -42 -9 0
-5 -20 -18 -30 -42 -6 0
-5 -20 -21 -27 -30 -9 0
-5 -20 -24 -30 -27 -6 0
-5 -26 -18 -21 -42 -9 0
-5 -26 -18 -24 -42 -6 0
-5 -26 -27 -21 -24 -9 0
-5 -26 -30 -24 -21 -6 0
-5 -36 -21 -18 -30 -9 0
-5 -36 -27 -18 -24 -9 0
-5 -39 -24 -18 -27 -6 0
-5 -39 -30 -18 -21 -6 0
-6 -21 -18 -26 -39 -9 0
-6 -21 -20 -26 -30 -9 0
-6 -27 -18 -20 -39 -9 0
-6 -27 -26 -20 -24 -9 0
-6 -36 -20 -18 -30 -9 0
-6 -36 -26 -18 -24 -9 0
-2 -18 -26 -37 -43 -8 0
-2 -18 -26 -38 -43 -7 0
-2 -18 -28 -37 -38 -8 0
-2 -18 -28 -43 -38 -5 0
-2 -18 -29 -38 -37 -7 0
-2 -18 -29 -43 -37 -5 0
-2 -20 -26 -28 -43 -8 0
-2 -20 -26 -29 -43 -7 0
-2 -20 -37 -28 -29 -8 0
-2 -20 -37 -43 -29 -3 0
-2 -20 -38 -29 -28 -7 0
-2 -20 -38 -43 -28 -3 0
-2 -22 -28 -26 -38 -8 0
-2 -22 -28 -29 -38 -5 0
-2 -22 -37 -26 -29 -8 0
-2 -22 -37 -38 -29 -3 0
-2 -22 -43 -29 -26 -5 0
-2 -22 -43 -38 -26 -3 0
-2 -23 -29 -26 -37 -7 0
-2 -23 -29 -28 -37 -5 0
-2 -23 -38 -26 -28 -7 0
-2 -23 -38 -37 -28 -3 0
-2 -23 -43 -28 -26 -5 0
-2 -23 -43 -37 -26 -3 0
-3 -18 -20 -37 -43 -8 0
-3 -18 -20 -38 -43 -7 0
-3 -18 -22 -37 -38 -8 0
-3 -18 -22 -43 -38 -5 0
-3 -18 -23 -38 -37 -7 0
-3 -18 -23 -43 -37 -5 0
-3 -26 -20 -22 -43 -8 0
-3 -26 -20 -23 -43 -7 0
-3 -26 -37 -22 -23 -8 0
-3 -26 -38 -23 -22 -7 0
-3 -28 -22 -20 -38 -8 0
-3 -28 -22 -23 -38 -5 0
-3 -28 -37 -20 -23 -8 0
-3 -28 -43 -23 -20 -5 0
-3 -29 -23 -20 -37 -7 0
-3 -29 -23 -22 -37 -5 0
-3 -29 -38 -20 -22 -7 0
-3 -29 -43 -22 -20 -5 0
-5 -20 -18 -28 -43 -8 0
-5 -20 -18 -29 -43 -7 0
-5 -20 -22 -28 -29 -8 0
-5 -20 -23 -29 -28 -7 0
-5 -26 -18 -22 -43 -8 0
-5 -26 -18 -23 -43 -7 0
-5 -26 -28 -22 -23 -8 0
-5 -26 -29 -23 -22 -7 0
-5 -37 -22 -18 -29 -8 0
-5 -37 -28 -18 -23 -8 0
-5 -38 -23 -18 -28 -7 0
-5 -38 -29 -18 -22 -7 0
-7 -22 -18 -26 -38 -8 0
-7 -22 -20 -26 -29 -8 0
-7 -28 -18 -20 -38 -8 0
-7 -28 -26 -20 -23 -8 0
-7 -37 -20 -18 -29 -8 0
-7 -37 -26 -18 -23 -8 0
-2 -18 -26 -37 -44 -9 0
-2 -18 -26 -39 -44 -7 0
-2 -18 -28 -37 -39 -9 0
-2 -18 -28 -44 -39 -5 0
-2 -18 -30 -39 -37 -7 0
-2 -18 -30 -44 -37 -5 0
-2 -20 -26 -28 -44 -9 0
-2 -20 -26 -30 -44 -7 0
-2 -20 -37 -28 -30 -9 0
-2 -20 -37 -44 -30 -3 0
-2 -20 -39 -30 -28 -7 0
-2 -20 -39 -44 -28 -3 0
-2 -22 -28 -26 -39 -9 0
-2 -22 -28 -30 -39 -5 0
-2 -22 -37 -26 -30 -9 0
-2 -22 -37 -39 -30 -3 0
-2 -22 -44 -30 -26 -5 0
-2 -22 -44 -39 -26 -3 0
-2 -24 -30 -26 -37 -7 0
-2 -24 -30 -28 -37 -5 0
-2 -24 -39 -26 -28 -7 0
-2 -24 -39 -37 -28 -3 0
-2 -24 -44 -28 -26 -5 0
-2 -24 -44 -37 -26 -3 0
-3 -18 -20 -37 -44 -9 0
-3 -18 -20 -39 -44 -7 0
-3 -18 -22 -37 -39 -9 0
-3 -18 -22 -44 -39 -5 0
-3 -18 -24 -39 -37 -7 0
-3 -18 -24 -44 -37 -5 0
-3 -26 -20 -22 -44 -9 0
-3 -26 -20 -24 -44 -7 0
-3 -26 -37 -22 -24 -9 0
-3 -26 -39 -24 -22 -7 0
-3 -28 -22 -20 -39 -9 0
-3 -28 -22 -24 -39 -5 0
-3 -28 -37 -20 -24 -9 0
-3 -28 -44 -24 -20 -5 0
-3 -30 -24 -20 -37 -7 0
-3 -30 -24 -22 -37 -5 0
-3 -30 -39 -20 -22 -7 0
-3 -30 -44 -22 -20 -5 0
-5 -20 -18 -28 -44 -9 0
-5 -20 -18 -30 -44 -7 0
-5 -20 -22 -28 -30 -9 0
-5 -20 -24 -30 -28 -7 0
-5 -26 -18 -22 -44 -9 0
-5 -26 -18 -24 -44 -7 0
-5 -26 -28 -22 -24 -9 0
-5 -26 -30 -24 -22 -7 0
-5 -37 -22 -18 -30 -9 0
-5 -37 -28 -18 -24 -9 0
-5 -39 -24 -18 -28 -7 0
-5 -39 -30 -18 -22 -7 0
-7 -22 -18 -26 -39 -9 0
-7 -22 -20 -26 -30 -9 0
-7 -28 -18 -20 -39 -9 0
-7 -28 -26 -20 -24 -9 0
-7 -37 -20 -18 -30 -9 0
-7 -37 -26 -18 -24 -9 0
-2 -18 -26 -38 -45 -9 0
-2 -18 -26 -39 -45 -8 0
-2 -18 -29 -38 -39 -9 0
-2 -18 -29 -45 -39 -5 0
-2 -18 -30 -39 -38 -8 0
-2 -18 -30 -45 -38 -5 0
-2 -20 -26 -29 -45 -9 0
-2 -20 -26 -30 -45 -8 0
-2 -20 -38 -29 -30 -9 0
-2 -20 -38 -45 -30 -3 0
-2 -20 -39 -30 -29 -8 0
-2 -20 -39 -45 -29 -3 0
-2 -23 -29 -26 -39 -9 0
-2 -23 -29 -30 -39 -5 0
-2 -23 -38 -26 -30 -9 0
-2 -23 -38 -39 -30 -3 0
-2 -23 -45 -30 -26 -5 0
-2 -23 -45 -39 -26 -3 0
-2 -24 -30 -26 -38 -8 0
-2 -24 -30 -29 -38 -5 0
-2 -24 -39 -26 -29 -8 0
-2 -24 -39 -38 -29 -3 0
-2 -24 -45 -29 -26 -5 0
-2 -24 -45 -38 -26 -3 0
-3 -18 -20 -38 -45 -9 0
-3 -18 -20 -39 -45 -8 0
-3 -18 -23 -38 -39 -9 0
-3 -18 -23 -45 -39 -5 0
-3 -18 -24 -39 -38 -8 0
-3 -18 -24 -45 -38 -5 0
-3 -26 -20 -23 -45 -9 0
-3 -26 -20 -24 -45 -8 0
-3 -26 -38 -23 -24 -9 0
-3 -26 -39 -24 -23 -8 0
-3 -29 -23 -20 -39 -9 0
-3 -29 -23 -24 -39 -5 0
-3 -29 -38 -20 -24 -9 0
-3 -29 -45 -24 -20 -5 0
-3 -30 -24 -20 -38 -8 0
-3 -30 -24 -23 -38 -5 0
-3 -30 -39 -20 -23 -8 0
-3 -30 -45 -23 -20 -5 0
-5 -20 -18 -29 -45 -9 0
-5 -20 -18 -30 -45 -8 0
-5 -20 -23 -29 -30 -9 0
-5 -20 -24 -30 -29 -8 0
-5 -26 -18 -23 -45 -9 0
-5 -26 -18 -24 -45 -8 0
-5 -26 -29 -23 -24 -9 0
-5 -26 -30 -24 -23 -8 0
-5 -38 -23 -18 -30 -9 0
-5 -38 -29 -18 -24 -9 0
-5 -39 -24 -18 -29 -8 0
-5 -39 -30 -18 -23 -8 0
-8 -23 -18 -26 -39 -9 0
-8 -23 -20 -26 -30 -9 0
-8 -29 -18 -20 -39 -9 0
-8 -29 -26 -20 -24 -9 0
-8 -38 -20 -18 -30 -9 0
-8 -38 -26 -18 -24 -9 0
-2 -18 -27 -40 -43 -8 0
-2 -18 -27 -41 -43 -7 0
-2 -18 -28 -40 -41 -8 0
-2 -18 -28 -43 -41 -6 0
-2 -18 -29 -41 -40 -7 0
-2 -18 -29 -43 -40 -6 0
-2 -21 -27 -28 -43 -8 0
-2 -21 -27 -29 -43 -7 0
-2 -21 -40 -28 -29 -8 0
-2 -21 -40 -43 -29 -3 0
-2 -21 -41 -29 -28 -7 0
-2 -21 -41 -43 -28 -3 0
-2 -22 -28 -27 -41 -8 0
-2 -22 -28 -29 -41 -6 0
-2 -22 -40 -27 -29 -8 0
-2 -22 -40 -41 -29 -3 0
-2 -22 -43 -29 -27 -6 0
-2 -22 -43 -41 -27 -3 0
-2 -23 -29 -27 -40 -7 0
-2 -23 -29 -28 -40 -6 0
-2 -23 -41 -27 -28 -7 0
-2 -23 -41 -40 -28 -3 0
-2 -23 -43 -28 -27 -6 0
-2 -23 -43 -40 -27 -3 0
-3 -18 -21 -40 -43 -8 0
-3 -18 -21 -41 -43 -7 0
-3 -18 -22 -40 -41 -8 0
-3 -18 -22 -43 -41 -6 0
-3 -18 -23 -41 -40 -7 0
-3 -18 -23 -43 -40 -6 0
-3 -27 -21 -22 -43 -8 0
-3 -27 -21 -23 -43 -7 0
-3 -27 -40 -22 -23 -8 0
-3 -27 -41 -23 -22 -7 0
-3 -28 -22 -21 -41 -8 0
-3 -28 -22 -23 -41 -6 0
-3 -28 -40 -21 -23 -8 0
-3 -28 -43 -23 -21 -6 0
-3 -29 -23 -21 -40 -7 0
-3 -29 -23 -22 -40 -6 0
-3 -29 -41 -21 -22 -7 0
-3 -29 -43 -22 -21 -6 0
-6 -21 -18 -28 -43 -8 0
-6 -21 -18 -29 -43 -7 0
-6 -21 -22 -28 -29 -8 0
-6 -21 -23 -29 -28 -7 0
-6 -27 -18 -22 -43 -8 0
-6 -27 -18 -23 -43 -7 0
-6 -27 -28 -22 -23 -8 0
-6 -27 -29 -23 -22 -7 0
-6 -40 -22 -18 -29 -8 0
-6 -40 -28 -18 -23 -8 0
-6 -41 -23 -18 -28 -7 0
-6 -41 -29 -18 -22 -7 0
-7 -22 -18 -27 -41 -8 0
-7 -22 -21 -27 -29 -8 0
-7 -28 -18 -21 -41 -8 0
-7 -28 -27 -21 -23 -8 0
-7 -40 -21 -18 -29 -8 0
-7 -40 -27 -18 -23 -8 0
-2 -18 -27 -40 -44 -9 0
-2 -18 -27 -42 -44 -7 0
-2 -18 -28 -40 -42 -9 0
-2 -18 -28 -44 -42 -6 0
-2 -18 -30 -42 -40 -7 0
-2 -18 -30 -44 -40 -6 0
-2 -21 -27 -28 -44 -9 0
-2 -21 -27 -30 -44 -7 0
-2 -21 -40 -28 -30 -9 0
-2 -21 -40 -44 -30 -3 0
-2 -21 -42 -30 -28 -7 0
-2 -21 -42 -44 -28 -3 0
-2 -22 -28 -27 -42 -9 0
-2 -22 -28 -30 -42 -6 0
-2 -22 -40 -27 -30 -9 0
-2 -22 -40 -42 -30 -3 0
-2 -22 -44 -30 -27 -6 0
-2 -22 -44 -42 -27 -3 0
-2 -24 -30 -27 -40 -7 0
-2 -24 -30 -28 -40 -6 0
-2 -24 -42 -27 -28 -7 0
-2 -24 -42 -40 -28 -3 0
-2 -24 -44 -28 -27 -6 0
-2 -24 -44 -40 -27 -3 0
-3 -18 -21 -40 -44 -9 0
-3 -18 -21 -42 -44 -7 0
-3 -18 -22 -40 -42 -9 0
-3 -18 -22 -44 -42 -6 0
-3 -18 -24 -42 -40 -7 0
-3 -18 -24 -44 -40 -6 0
-3 -27 -21 -22 -44 -9 0
-3 -27 -21 -24 -44 -7 0
-3 -27 -40 -22 -24 -9 0
-3 -27 -42 -24 -22 -7 0
-3 -28 -22 -21 -42 -9 0
-3 -28 -22 -24 -42 -6 0
-3 -28 -40 -21 -24 -9 0
-3 -28 -44 -24 -21 -6 0
-3 -30 -24 -21 -40 -7 0
-3 -30 -24 -22 -40 -6 0
-3 -30 -42 -21 -22 -7 0
-3 -30 -44 -22 -21 -6 0
-6 -21 -18 -28 -44 -9 0
-6 -21 -18 -30 -44 -7 0
-6 -21 -22 -28 -30 -9 0
-6 -21 -24 -30 -28 -7 0
-6 -27 -18 -22 -44 -9 0
-6 -27 -18 -24 -44 -7 0
-6 -27 -28 -22 -24 -9 0
-6 -27 -30 -24 -22 -7 0
-6 -40 -22 -18 -30 -9 0
-6 -40 -28 -18 -24 -9 0
-6 -42 -24 -18 -28 -7 0
-6 -42 -30 -18 -22 -7 0
-7 -22 -18 -27 -42 -9 0
-7 -22 -21 -27 -30 -9 0
-7 -28 -18 -21 -42 -9 0
-7 -28 -27 -21 -24 -9 0
-7 -40 -21 -18 -30 -9 0
-7 -40 -27 -18 -24 -9 0
-2 -18 -27 -41 -45 -9 0
-2 -18 -27 -42 -45 -8 0
-2 -18 -29 -41 -42 -9 0
-2 -18 -29 -45 -42 -6 0
-2 -18 -30 -42 -41 -8 0
-2 -18 -30 -45 -41 -6 0
-2 -21 -27 -29 -45 -9 0
-2 -21 -27 -30 -45 -8 0
-2 -21 -41 -29 -30 -9 0
-2 -21 -41 -45 -30 -3 0
-2 -21 -42 -30 -29 -8 0
-2 -21 -42 -45 -29 -3 0
-2 -23 -29 -27 -42 -9 0
-2 -23 -29 -30 -42 -6 0
-2 -23 -41 -27 -30 -9 0
-2 -23 -41 -42 -30 -3 0
-2 -23 -45 -30 -27 -6 0
-2 -23 -45 -42 -27 -3 0
-2 -24 -30 -27 -41 -8 0
-2 -24 -30 -29 -41 -6 0
-2 -24 -42 -27 -29 -8 0
-2 -24 -42 -41 -29 -3 0
-2 -24 -45 -29 -27 -6 0
-2 -24 -45 -41 -27 -3 0
-3 -18 -21 -41 -45 -9 0
-3 -18 -21 -42 -45 -8 0
-3 -18 -23 -41 -42 -9 0
-3 -18 -23 -45 -42 -6 0
-3 -18 -24 -42 -41 -8 0
-3 -18 -24 -45 -41 -6 0
-3 -27 -21 -23 -45 -9 0
-3 -27 -21 -24 -45 -8 0
-3 -27 -41 -23 -24 -9 0
-3 -27 -42 -24 -23 -8 0
-3 -29 -23 -21 -42 -9 0
-3 -29 -23 -24 -42 -6 0
-3 -29 -41 -21 -24 -9 0
-3 -29 -45 -24 -21 -6 0
-3 -30 -24 -21 -41 -8 0
-3 -30 -24 -23 -41 -6 0
-3 -30 -42 -21 -23 -8 0
-3 -30 -45 -23 -21 -6 0
-6 -21 -18 -29 -45 -9 0
-6 -21 -18 -30 -45 -8 0
-6 -21 -23 -29 -30 -9 0
-6 -21 -24 -30 -29 -8 0
-6 -27 -18 -23 -45 -9 0
-6 -27 -18 -24 -45 -8 0
-6 -27 -29 -23 -24 -9 0
-6 -27 -30 -24 -23 -8 0
-6 -41 -23 -18 -30 -9 0
-6 -41 -29 -18 -24 -9 0
-6 -42 -24 -18 -29 -8 0
-6 -42 -30 -18 -23 -8 0
-8 -23 -18 -27 -42 -9 0
-8 -23 -21 -27 -30 -9 0
-8 -29 -18 -21 -42 -9 0
-8 -29 -27 -21 -24 -9 0
-8 -41 -21 -18 -30 -9 0
-8 -41 -27 -18 -24 -9 0
-2 -18 -28 -43 -45 -9 0
-2 -18 -28 -44 -45 -8 0
-2 -18 -29 -43 -44 -9 0
-2 -18 -29 -45 -44 -7 0
-2 -18 -30 -44 -43 -8 0
-2 -18 -30 -45 -43 -7 0
-2 -22 -28 -29 -45 -9 0
-2 -22 -28 -30 -45 -8 0
-2 -22 -43 -29 -30 -9 0
-2 -22 -43 -45 -30 -3 0
-2 -22 -44 -30 -29 -8 0
-2 -22 -44 -45 -29 -3 0
-2 -23 -29 -28 -44 -9 0
-2 -23 -29 -30 -44 -7 0
-2 -23 -43 -28 -30 -9 0
-2 -23 -43 -44 -30 -3 0
-2 -23 -45 -30 -28 -7 0
-2 -23 -45 -44 -28 -3 0
-2 -24 -30 -28 -43 -8 0
-2 -24 -30 -29 -43 -7 0
-2 -24 -44 -28 -29 -8 0
-2 -24 -44 -43 -29 -3 0
-2 -24 -45 -29 -28 -7 0
-2 -24 -45 -43 -28 -3 0
-3 -18 -22 -43 -45 -9 0
-3 -18 -22 -44 -45 -8 0
-3 -18 -23 -43 -44 -9 0
-3 -18 -23 -45 -44 -7 0
-3 -18 -24 -44 -43 -8 0
-3 -18 -24 -45 -43 -7 0
-3 -28 -22 -23 -45 -9 0
-3 -28 -22 -24 -45 -8 0
-3 -28 -43 -23 -24 -9 0
-3 -28 -44 -24 -23 -8 0
-3 -29 -23 -22 -44 -9 0
-3 -29 -23 -24 -44 -7 0
-3 -29 -43 -22 -24 -9 0
-3 -29 -45 -24 -22 -7 0
-3 -30 -24 -22 -43 -8 0
-3 -30 -24 -23 -43 -7 0
-3 -30 -44 -22 -23 -8 0
-3 -30 -45 -23 -22 -7 0
-7 -22 -18 -29 -45 -9 0
-7 -22 -18 -30 -45 -8 0
-7 -22 -23 -29 -30 -9 0
-7 -22 -24 -30 -29 -8 0
-7 -28 -18 -23 -45 -9 0
-7 -28 -18 -24 -45 -8 0
-7 -28 -29 -23 -24 -9 0
-7 -28 -30 -24 -23 -8 0
-7 -43 -23 -18 -30 -9 0
-7 -43 -29 -18 -24 -9 0
-7 -44 -24 -18 -29 -8 0
-7 -44 -30 -18 -23 -8 0
-8 -23 -18 -28 -44 -9 0
-8 -23 -22 -28 -30 -9 0
-8 -29 -18 -22 -44 -9 0
-8 -29 -28 -22 -24 -9 0
-8 -43 -22 -18 -30 -9 0
-8 -43 -28 -18 -24 -9 0
-2 -19 -31 -36 -40 -7 0
-2 -19 -31 -37 -40 -6 0
-2 -19 -32 -36 -37 -7 0
-2 -19 -32 -40 -37 -5 0
-2 -19 -33 -37 -36 -6 0
-2 -19 -33 -40 -36 -5 0
-2 -20 -31 -32 -40 -7 0
-2 -20 -31 -33 -40 -6 0
-2 -20 -36 -32 -33 -7 0
-2 -20 -36 -40 -33 -4 0
-2 -20 -37 -33 -32 -6 0
-2 -20 -37 -40 -32 -4 0
-2 -21 -32 -31 -37 -7 0
-2 -21 -32 -33 -37 -5 0
-2 -21 -36 -31 -33 -7 0
-2 -21 -36 -37 -33 -4 0
-2 -21 -40 -33 -31 -5 0
-2 -21 -40 -37 -31 -4 0
-2 -22 -33 -31 -36 -6 0
-2 -22 -33 -32 -36 -5 0
-2 -22 -37 -31 -32 -6 0
-2 -22 -37 -36 -32 -4 0
-2 -22 -40 -32 -31 -5 0
-2 -22 -40 -36 -31 -4 0
-4 -19 -20 -36 -40 -7 0
-4 -19 -20 -37 -40 -6 0
-4 -19 -21 -36 -37 -7 0
-4 -19 -21 -40 -37 -5 0
-4 -19 -22 -37 -36 -6 0
-4 -19 -22 -40 -36 -5 0
-4 -31 -20 -21 -40 -7 0
-4 -31 -20 -22 -40 -6 0
-4 -31 -36 -21 -22 -7 0
-4 -31 -37 -22 -21 -6 0
-4 -32 -21 -20 -37 -7 0
-4 -32 -21 -22 -37 -5 0
-4 -32 -36 -20 -22 -7 0
-4 -32 -40 -22 -20 -5 0
-4 -33 -22 -20 -36 -6 0
-4 -33 -22 -21 -36 -5 0
-4 -33 -37 -20 -21 -6 0
-4 -33 -40 -21 -20 -5 0
-5 -20 -19 -32 -40 -7 0
-5 -20 -19 -33 -40 -6 0
-5 -20 -21 -32 -33 -7 0
-5 -20 -22 -33 -32 -6 0
-5 -31 -19 -21 -40 -7 0
-5 -31 -19 -22 -40 -6 0
-5 -31 -32 -21 -22 -7 0
-5 -31 -33 -22 -21 -6 0
-5 -36 -21 -19 -33 -7 0
-5 -36 -32 -19 -22 -7 0
-5 -37 -22 -19 -32 -6 0
-5 -37 -33 -19 -21 -6 0
-6 -21 -19 -31 -37 -7 0
-6 -21 -20 -31 -33 -7 0
-6 -32 -19 -20 -37 -7 0
-6 -32 -31 -20 -22 -7 0
-6 -36 -20 -19 -33 -7 0
-6 -36 -31 -19 -22 -7 0
-2 -19 -31 -36 -41 -8 0
-2 -19 -31 -38 -41 -6 0
-2 -19 -32 -36 -38 -8 0
-2 -19 -32 -41 -38 -5 0
-2 -19 -34 -38 -36 -6 0
-2 -19 -34 -41 -36 -5 0
-2 -20 -31 -32 -41 -8 0
-2 -20 -31 -34 -41 -6 0
-2 -20 -36 -32 -34 -8 0
-2 -20 -36 -41 -34 -4 0
-2 -20 -38 -34 -32 -6 0
-2 -20 -38 -41 -32 -4 0
-2 -21 -32 -31 -38 -8 0
-2 -21 -32 -34 -38 -5 0
-2 -21 -36 -31 -34 -8 0
-2 -21 -36 -38 -34 -4 0
-2 -21 -41 -34 -31 -5 0
-2 -21 -41 -38 -31 -4 0
-2 -23 -34 -31 -36 -6 0
-2 -23 -34 -32 -36 -5 0
-2 -23 -38 -31 -32 -6 0
-2 -23 -38 -36 -32 -4 0
-2 -23 -41 -32 -31 -5 0
-2 -23 -41 -36 -31 -4 0
-4 -19 -20 -36 -41 -8 0
-4 -19 -20 -38 -41 -6 0
-4 -19 -21 -36 -38 -8 0
-4 -19 -21 -41 -38 -5 0
-4 -19 -23 -38 -36 -6 0
-4 -19 -23 -41 -36 -5 0
-4 -31 -20 -21 -41 -8 0
-4 -31 -20 -23 -41 -6 0
-4 -31 -36 -21 -23 -8 0
-4 -31 -38 -23 -21 -6 0
-4 -32 -21 -20 -38 -8 0
-4 -32 -21 -23 -38 -5 0
-4 -32 -36 -20 -23 -8 0
-4 -32 -41 -23 -20 -5 0
-4 -34 -23 -20 -36 -6 0
-4 -34 -23 -21 -36 -5 0
-4 -34 -38 -20 -21 -6 0
-4 -34 -41 -21 -20 -5 0
-5 -20 -19 -32 -41 -8 0
-5 -20 -19 -34 -41 -6 0
-5 -20 -21 -32 -34 -8 0
-5 -20 -23 -34 -32 -6 0
-5 -31 -19 -21 -41 -8 0
-5 -31 -19 -23 -41 -6 0
-5 -31 -32 -21 -23 -8 0
-5 -31 -34 -23 -21 -6 0
-5 -36 -21 -19 -34 -8 0
-5 -36 -32 -19 -23 -8 0
-5 -38 -23 -19 -32 -6 0
-5 -38 -34 -19 -21 -6 0
-6 -21 -19 -31 -38 -8 0
-6 -21 -20 -31 -34 -8 0
-6 -32 -19 -20 -38 -8 0
-6 -32 -31 -20 -23 -8 0
-6 -36 -20 -19 -34 -8 0
-6 -36 -31 -19 -23 -8 0
-2 -19 -31 -36 -42 -9 0
-2 -19 -31 -39 -42 -6 0
-2 -19 -32 -36 -39 -9 0
-2 -19 -32 -42 -39 -5 0
-2 -19 -35 -39 -36 -6 0
-2 -19 -35 -42 -36 -5 0
-2 -20 -31 -32 -42 -9 0
-2 -20 -31 -35 -42 -6 0
-2 -20 -36 -32 -35 -9 0
-2 -20 -36 -42 -35 -4 0
-2 -20 -39 -35 -32 -6 0
-2 -20 -39 -42 -32 -4 0
-2 -21 -32 -31 -39 -9 0
-2 -21 -32 -35 -39 -5 0
-2 -21 -36 -31 -35 -9 0
-2 -21 -36 -39 -35 -4 0
-2 -21 -42 -35 -31 -5 0
-2 -21 -42 -39 -31 -4 0
-2 -24 -35 -31 -36 -6 0
-2 -24 -35 -32 -36 -5 0
-2 -24 -39 -31 -32 -6 0
-2 -24 -39 -36 -32 -4 0
-2 -24 -42 -32 -31 -5 0
-2 -24 -42 -36 -31 -4 0
-4 -19 -20 -36 -42 -9 0
-4 -19 -20 -39 -42 -6 0
-4 -19 -21 -36 -39 -9 0
-4 -19 -21 -42 -39 -5 0
-4 -19 -24 -39 -36 -6 0
-4 -19 -24 -42 -36 -5 0
-4 -31 -20 -21 -42 -9 0
-4 -31 -20 -24 -42 -6 0
-4 -31 -36 -21 -24 -9 0
-4 -31 -39 -24 -21 -6 0
-4 -32 -21 -20 -39 -9 0
-4 -32 -21 -24 -39 -5 0
-4 -32 -36 -20 -24 -9 0
-4 -32 -42 -24 -20 -5 0
-4 -35 -24 -20 -36 -6 0
-4 -35 -24 -21 -36 -5 0
-4 -35 -39 -20 -21 -6 0
-4 -35 -42 -21 -20 -5 0
-5 -20 -19 -32 -42 -9 0
-5 -20 -19 -35 -42 -6 0
-5 -20 -21 -32 -35 -9 0
-5 -20 -24 -35 -32 -6 0
-5 -31 -19 -21 -42 -9 0
-5 -31 -19 -24 -42 -6 0
-5 -31 -32 -21 -24 -9 0
-5 -31 -35 -24 -21 -6 0
-5 -36 -21 -19 -35 -9 0
-5 -36 -32 -19 -24 -9 0
-5 -39 -24 -19 -32 -6 0
-5 -39 -35 -19 -21 -6 0
-6 -21 -19 -31 -39 -9 0
-6 -21 -20 -31 -35 -9 0
-6 -32 -19 -20 -39 -9 0
-6 -32 -31 -20 -24 -9 0
-6 -36 -20 -19 -35 -9 0
-6 -36 -31 -19 -24 -9 0
-2 -19 -31 -37 -43 -8 0
-2 -19 -31 -38 -43 -7 0
-2 -19 -33 -37 -38 -8 0
-2 -19 -33 -43 -38 -5 0
-2 -19 -34 -38 -37 -7 0
-2 -19 -34 -43 -37 -5 0
-2 -20 -31 -33 -43 -8 0
-2 -20 -31 -34 -43 -7 0
-2 -20 -37 -33 -34 -8 0
-2 -20 -37 -43 -34 -4 0
-2 -20 -38 -34 -33 -7 0
-2 -20 -38 -43 -33 -4 0
-2 -22 -33 -31 -38 -8 0
-2 -22 -33 -34 -38 -5 0
-2 -22 -37 -31 -34 -8 0
-2 -22 -37 -38 -34 -4 0
-2 -22 -43 -34 -31 -5 0
-2 -22 -43 -38 -31 -4 0
-2 -23 -34 -31 -37 -7 0
-2 -23 -34 -33 -37 -5 0
-2 -23 -38 -31 -33 -7 0
-2 -23 -38 -37 -33 -4 0
-2 -23 -43 -33 -31 -5 0
-2 -23 -43 -37 -31 -4 0
-4 -19 -20 -37 -43 -8 0
-4 -19 -20 -38 -43 -7 0
-4 -19 -22 -37 -38 -8 0
-4 -19 -22 -43 -38 -5 0
-4 -19 -23 -38 -37 -7 0
-4 -19 -23 -43 -37 -5 0
-4 -31 -20 -22 -43 -8 0
-4 -31 -20 -23 -43 -7 0
-4 -31 -37 -22 -23 -8 0
-4 -31 -38 -23 -22 -7 0
-4 -33 -22 -20 -38 -8 0
-4 -33 -22 -23 -38 -5 0
-4 -33 -37 -20 -23 -8 0
-4 -33 -43 -23 -20 -5 0
-4 -34 -23 -20 -37 -7 0
-4 -34 -23 -22 -37 -5 0
-4 -34 -38 -20 -22 -7 0
-4 -34 -43 -22 -20 -5 0
-5 -20 -19 -33 -43 -8 0
-5 -20 -19 -34 -43 -7 0
-5 -20 -22 -33 -34 -8 0
-5 -20 -23 -34 -33 -7 0
-5 -31 -19 -22 -43 -8 0
-5 -31 -19 -23 -43 -7 0
-5 -31 -33 -22 -23 -8 0
-5 -31 -34 -23 -22 -7 0
-5 -37 -22 -19 -34 -8 0
-5 -37 -33 -19 -23 -8 0
-5 -38 -23 -19 -33 -7 0
-5 -38 -34 -19 -22 -7 0
-7 -22 -19 -31 -38 -8 0
-7 -22 -20 -31 -34 -8 0
-7 -33 -19 -20 -38 -8 0
-7 -33 -31 -20 -23 -8 0
-7 -37 -20 -19 -34 -8 0
-7 -37 -31 -19 -23 -8 0
-2 -19 -31 -37 -44 -9 0
-2 -19 -31 -39 -44 -7 0
-2 -19 -33 -37 -39 -9 0
-2 -19 -33 -44 -39 -5 0
-2 -19 -35 -39 -37 -7 0
-2 -19 -35 -44 -37 -5 0
-2 -20 -31 -33 -44 -9 0
-2 -20 -31 -35 -44 -7 0
-2 -20 -37 -33 -35 -9 0
-2 -20 -37 -44 -35 -4 0
-2 -20 -39 -35 -33 -7 0
-2 -20 -39 -44 -33 -4 0
-2 -22 -33 -31 -39 -9 0
-2 -22 -33 -35 -39 -5 0
-2 -22 -37 -31 -35 -9 0
-2 -22 -37 -39 -35 -4 0
-2 -22 -44 -35 -31 -5 0
-2 -22 -44 -39 -31 -4 0
-2 -24 -35 -31 -37 -7 0
-2 -24 -35 -33 -37 -5 0
-2 -24 -39 -31 -33 -7 0
-2 -24 -39 -37 -33 -4 0
-2 -24 -44 -33 -31 -5 0
-2 -24 -44 -37 -31 -4 0
-4 -19 -20 -37 -44 -9 0
-4 -19 -20 -39 -44 -7 0
-4 -19 -22 -37 -39 -9 0
-4 -19 -22 -44 -39 -5 0
-4 -19 -24 -39 -37 -7 0
-4 -19 -24 -44 -37 -5 0
-4 -31 -20 -22 -44 -9 0
-4 -31 -20 -24 -44 -7 0
-4 -31 -37 -22 -24 -9 0
-4 -31 -39 -24 -22 -7 0
-4 -33 -22 -20 -39 -9 0
-4 -33 -22 -24 -39 -5 0
-4 -33 -37 -20 -24 -9 0
-4 -33 -44 -24 -20 -5 0
-4 -35 -24 -20 -37 -7 0
-4 -35 -24 -22 -37 -5 0
-4 -35 -39 -20 -22 -7 0
-4 -35 -44 -22 -20 -5 0
-5 -20 -19 -33 -44 -9 0
-5 -20 -19 -35 -44 -7 0
-5 -20 -22 -33 -35 -9 0
-5 -20 -24 -35 -33 -7 0
-5 -31 -19 -22 -44 -9 0
-5 -31 -19 -24 -44 -7 0
-5 -31 -33 -22 -24 -9 0
-5 -31 -35 -24 -22 -7 0
-5 -37 -22 -19 -35 -9 0
-5 -37 -33 -19 -24 -9 0
-5 -39 -24 -19 -33 -7 0
-5 -39 -35 -19 -22 -7 0
-7 -22 -19 -31 -39 -9 0
-7 -22 -20 -31 -35 -9 0
-7 -33 -19 -20 -39 -9 0
-7 -33 -31 -20 -24 -9 0
-7 -37 -20 -19 -35 -9 0
-7 -37 -31 -19 -24 -9 0
-2 -19 -31 -38 -45 -9 0
-2 -19 -31 -39 -45 -8 0
-2 -19 -34 -38 -39 -9 0
-2 -19 -34 -45 -39 -5 0
-2 -19 -35 -39 -38 -8 0
-2 -19 -35 -45 -38 -5 0
-2 -20 -31 -34 -45 -9 0
-2 -20 -31 -35 -45 -8 0
-2 -20 -38 -34 -35 -9 0
-2 -20 -38 -45 -35 -4 0
-2 -20 -39 -35 -34 -8 0
-2 -20 -39 -45 -34 -4 0
-2 -23 -34 -31 -39 -9 0
-2 -23 -34 -35 -39 -5 0
-2 -23 -38 -31 -35 -9 0
-2 -23 -38 -39 -35 -4 0
-2 -23 -45 -35 -31 -5 0
-2 -23 -45 -39 -31 -4 0
-2 -24 -35 -31 -38 -8 0
-2 -24 -35 -34 -38 -5 0
-2 -24 -39 -31 -34 -8 0
-2 -24 -39 -38 -34 -4 0
-2 -24 -45 -34 -31 -5 0
-2 -24 -45 -38 -31 -4 0
-4 -19 -20 -38 -45 -9 0
-4 -19 -20 -39 -45 -8 0
-4 -19 -23 -38 -39 -9 0
-4 -19 -23 -45 -39 -5 0
-4 -19 -24 -39 -38 -8 0
-4 -19 -24 -45 -38 -5 0
-4 -31 -20 -23 -45 -9 0
-4 -31 -20 -24 -45 -8 0
-4 -31 -38 -23 -24 -9 0
-4 -31 -39 -24 -23 -8 0
-4 -34 -23 -20 -39 -9 0
-4 -34 -23 -24 -39 -5 0
-4 -34 -38 -20 -24 -9 0
-4 -34 -45 -24 -20 -5 0
-4 -35 -24 -20 -38 -8 0
-4 -35 -24 -23 -38 -5 0
-4 -35 -39 -20 -23 -8 0
-4 -35 -45 -23 -20 -5 0
-5 -20 -19 -34 -45 -9 0
-5 -20 -19 -35 -45 -8 0
-5 -20 -23 -34 -35 -9 0
-5 -20 -24 -35 -34 -8 0
-5 -31 -19 -23 -45 -9 0
-5 -31 -19 -24 -45 -8 0
-5 -31 -34 -23 -24 -9 0
-5 -31 -35 -24 -23 -8 0
-5 -38 -23 -19 -35 -9 0
-5 -38 -34 -19 -24 -9 0
-5 -39 -24 -19 -34 -8 0
-5 -39 -35 -19 -23 -8 0
-8 -23 -19 -31 -39 -9 0
-8 -23 -20 -31 -35 -9 0
-8 -34 -19 -20 -39 -9 0
-8 -34 -31 -20 -24 -9 0
-8 -38 -20 -19 -35 -9 0
-8 -38 -31 -19 -24 -9 0
-2 -19 -32 -40 -43 -8 0
-2 -19 -32 -41 -43 -7 0
-2 -19 -33 -40 -41 -8 0
-2 -19 -33 -43 -41 -6 0
-2 -19 -34 -41 -40 -7 0
-2 -19 -34 -43 -40 -6 0
-2 -21 -32 -33 -43 -8 0
-2 -21 -32 -34 -43 -7 0
-2 -21 -40 -33 -34 -8 0
-2 -21 -40 -43 -34 -4 0
-2 -21 -41 -34 -33 -7 0
-2 -21 -41 -43 -33 -4 0
-2 -22 -33 -32 -41 -8 0
-2 -22 -33 -34 -41 -6 0
-2 -22 -40 -32 -34 -8 0
-2 -22 -40 -41 -34 -4 0
-2 -22 -43 -34 -32 -6 0
-2 -22 -43 -41 -32 -4 0
-2 -23 -34 -32 -40 -7 0
-2 -23 -34 -33 -40 -6 0
-2 -23 -41 -32 -33 -7 0
-2 -23 -41 -40 -33 -4 0
-2 -23 -43 -33 -32 -6 0
-2 -23 -43 -40 -32 -4 0
-4 -19 -21 -40 -43 -8 0
-4 -19 -21 -41 -43 -7 0
-4 -19 -22 -40 -41 -8 0
-4 -19 -22 -43 -41 -6 0
-4 -19 -23 -41 -40 -7 0
-4 -19 -23 -43 -40 -6 0
-4 -32 -21 -22 -43 -8 0
-4 -32 -21 -23 -43 -7 0
-4 -32 -40 -22 -23 -8 0
-4 -32 -41 -23 -22 -7 0
-4 -33 -22 -21 -41 -8 0
-4 -33 -22 -23 -41 -6 0
-4 -33 -40 -21 -23 -8 0
-4 -33 -43 -23 -21 -6 0
-4 -34 -23 -21 -40 -7 0
-4 -34 -23 -22 -40 -6 0
-4 -34 -41 -21 -22 -7 0
-4 -34 -43 -22 -21 -6 0
-6 -21 -19 -33 -43 -8 0
-6 -21 -19 -34 -43 -7 0
-6 -21 -22 -33 -34 -8 0
-6 -21 -23 -34 -33 -7 0
-6 -32 -19 -22 -43 -8 0
-6 -32 -19 -23 -43 -7 0
-6 -32 -33 -22 -23 -8 0
-6 -32 -34 -23 -22 -7 0
-6 -40 -22 -19 -34 -8 0
-6 -40 -33 -19 -23 -8 0
-6 -41 -23 -19 -33 -7 0
-6 -41 -34 -19 -22 -7 0
-7 -22 -19 -32 -41 -8 0
-7 -22 -21 -32 -34 -8 0
-7 -33 -19 -21 -41 -8 0
-7 -33 -32 -21 -23 -8 0
-7 -40 -21 -19 -34 -8 0
-7 -40 -32 -19 -23 -8 0
-2 -19 -32 -40 -44 -9 0
-2 -19 -32 -42 -44 -7 0
-2 -19 -33 -40 -42 -9 0
-2 -19 -33 -44 -42 -6 0
-2 -19 -35 -42 -40 -7 0
-2 -19 -35 -44 -40 -6 0
-2 -21 -32 -33 -44 -9 0
-2 -21 -32 -35 -44 -7 0
-2 -21 -40 -33 -35 -9 0
-2 -21 -40 -44 -35 -4 0
-2 -21 -42 -35 -33 -7 0
-2 -21 -42 -44 -33 -4 0
-2 -22 -33 -32 -42 -9 0
-2 -22 -33 -35 -42 -6 0
-2 -22 -40 -32 -35 -9 0
-2 -22 -40 -42 -35 -4 0
-2 -22 -44 -35 -32 -6 0
-2 -22 -44 -42 -32 -4 0
-2 -24 -35 -32 -40 -7 0
-2 -24 -35 -33 -40 -6 0
-2 -24 -42 -32 -33 -7 0
-2 -24 -42 -40 -33 -4 0
-2 -24 -44 -33 -32 -6 0
-2 -24 -44 -40 -32 -4 0
-4 -19 -21 -40 -44 -9 0
-4 -19 -21 -42 -44 -7 0
-4 -19 -22 -40 -42 -9 0
-4 -19 -22 -44 -42 -6 0
-4 -19 -24 -42 -40 -7 0
-4 -19 -24 -44 -40 -6 0
-4 -32 -21 -22 -44 -9 0
-4 -32 -21 -24 -44 -7 0
-4 -32 -40 -22 -24 -9 0
-4 -32 -42 -24 -22 -7 0
-4 -33 -22 -21 -42 -9 0
-4 -33 -22 -24 -42 -6 0
-4 -33 -40 -21 -24 -9 0
-4 -33 -44 -24 -21 -6 0
-4 -35 -24 -21 -40 -7 0
-4 -35 -24 -22 -40 -6 0
-4 -35 -42 -21 -22 -7 0
-4 -35 -44 -22 -21 -6 0
-6 -21 -19 -33 -44 -9 0
-6 -21 -19 -35 -44 -7 0
-6 -21 -22 -33 -35 -9 0
-6 -21 -24 -35 -33 -7 0
-6 -32 -19 -22 -44 -9 0
-6 -32 -19 -24 -44 -7 0
-6 -32 -33 -22 -24 -9 0
-6 -32 -35 -24 -22 -7 0
-6 -40 -22 -19 -35 -9 0
-6 -40 -33 -19 -24 -9 0
-6 -42 -24 -19 -33 -7 0
-6 -42 -35 -19 -22 -7 0
-7 -22 -19 -32 -42 -9 0
-7 -22 -21 -32 -35 -9 0
-7 -33 -19 -21 -42 -9 0
-7 -33 -32 -21 -24 -9 0
-7 -40 -21 -19 -35 -9 0
-7 -40 -32 -19 -24 -9 0
-2 -19 -32 -41 -45 -9 0
-2 -19 -32 -42 -45 -8 0
-2 -19 -34 -41 -42 -9 0
-2 -19 -34 -45 -42 -6 0
-2 -19 -35 -42 -41 -8 0
-2 -19 -35 -45 -41 -6 0
-2 -21 -32 -34 -45 -9 0
-2 -21 -32 -35 -45 -8 0
-2 -21 -41 -34 -35 -9 0
-2 -21 -41 -45 -35 -4 0
-2 -21 -42 -35 -34 -8 0
-2 -21 -42 -45 -34 -4 0
-2 -23 -34 -32 -42 -9 0
-2 -23 -34 -35 -42 -6 0
-2 -23 -41 -32 -35 -9 0
-2 -23 -41 -42 -35 -4 0
-2 -23 -45 -35 -32 -6 0
-2 -23 -45 -42 -32 -4 0
-2 -24 -35 -32 -41 -8 0
-2 -24 -35 -34 -41 -6 0
-2 -24 -42 -32 -34 -8 0
-2 -24 -42 -41 -34 -4 0
-2 -24 -45 -34 -32 -6 0
-2 -24 -45 -41 -32 -4 0
-4 -19 -21 -41 -45 -9 0
-4 -19 -21 -42 -45 -8 0
-4 -19 -23 -41 -42 -9 0
-4 -19 -23 -45 -42 -6 0
-4 -19 -24 -42 -41 -8 0
-4 -19 -24 -45 -41 -6 0
-4 -32 -21 -23 -45 -9 0
-4 -32 -21 -24 -45 -8 0
-4 -32 -41 -23 -24 -9 0
-4 -32 -42 -24 -23 -8 0
-4 -34 -23 -21 -42 -9 0
-4 -34 -23 -24 -42 -6 0
-4 -34 -41 -21 -24 -9 0
-4 -34 -45 -24 -21 -6 0
-4 -35 -24 -21 -41 -8 0
-4 -35 -24 -23 -41 -6 0
-4 -35 -42 -21 -23 -8 0
-4 -35 -45 -23 -21 -6 0
-6 -21 -19 -34 -45 -9 0
-6 -21 -19 -35 -45 -8 0
-6 -21 -23 -34 -35 -9 0
-6 -21 -24 -35 -34 -8 0
-6 -32 -19 -23 -45 -9 0
-6 -32 -19 -24 -45 -8 0
-6 -32 -34 -23 -24 -9 0
-6 -32 -35 -24 -23 -8 0
-6 -41 -23 -19 -35 -9 0
-6 -41 -34 -19 -24 -9 0
-6 -42 -24 -19 -34 -8 0
-6 -42 -35 -19 -23 -8 0
-8 -23 -19 -32 -42 -9 0
-8 -23 -21 -32 -35 -9 0
-8 -34 -19 -21 -42 -9 0
-8 -34 -32 -21 -24 -9 0
-8 -41 -21 -19 -35 -9 0
-8 -41 -32 -19 -24 -9 0
-2 -19 -33 -43 -45 -9 0
-2 -19 -33 -44 -45 -8 0
-2 -19 -34 -43 -44 -9 0
-2 -19 -34 -45 -44 -7 0
-2 -19 -35 -44 -43 -8 0
-2 -19 -35 -45 -43 -7 0
-2 -22 -33 -34 -45 -9 0
-2 -22 -33 -35 -45 -8 0
-2 -22 -43 -34 -35 -9 0
-2 -22 -43 -45 -35 -4 0
-2 -22 -44 -35 -34 -8 0
-2 -22 -44 -45 -34 -4 0
-2 -23 -34 -33 -44 -9 0
-2 -23 -34 -35 -44 -7 0
-2 -23 -43 -33 -35 -9 0
-2 -23 -43 -44 -35 -4 0
-2 -23 -45 -35 -33 -7 0
-2 -23 -45 -44 -33 -4 0
-2 -24 -35 -33 -43 -8 0
-2 -24 -35 -34 -43 -7 0
-2 -24 -44 -33 -34 -8 0
-2 -24 -44 -43 -34 -4 0
-2 -24 -45 -34 -33 -7 0
-2 -24 -45 -43 -33 -4 0
-4 -19 -22 -43 -45 -9 0
-4 -19 -22 -44 -45 -8 0
-4 -19 -23 -43 -44 -9 0
-4 -19 -23 -45 -44 -7 0
-4 -19 -24 -44 -43 -8 0
-4 -19 -24 -45 -43 -7 0
-4 -33 -22 -23 -45 -9 0
-4 -33 -22 -24 -45 -8 0
-4 -33 -43 -23 -24 -9 0
-4 -33 -44 -24 -23 -8 0
-4 -34 -23 -22 -44 -9 0
-4 -34 -23 -24 -44 -7 0
-4 -34 -43 -22 -24 -9 0
-4 -34 -45 -24 -22 -7 0
-4 -35 -24 -22 -43 -8 0
-4 -35 -24 -23 -43 -7 0
-4 -35 -44 -22 -23 -8 0
-4 -35 -45 -23 -22 -7 0
-7 -22 -19 -34 -45 -9 0
-7 -22 -19 -35 -45 -8 0
-7 -22 -23 -34 -35 -9 0
-7 -22 -24 -35 -34 -8 0
-7 -33 -19 -23 -45 -9 0
-7 -33 -19 -24 -45 -8 0
-7 -33 -34 -23 -24 -9 0
-7 -33 -35 -24 -23 -8 0
-7 -43 -23 -19 -35 -9 0
-7 -43 -34 -19 -24 -9 0
-7 -44 -24 -19 -34 -8 0
-7 -44 -35 -19 -23 -8 0
-8 -23 -19 -33 -44 -9 0
-8 -23 -22 -33 -35 -9 0
-8 -34 -19 -22 -44 -9 0
-8 -34 -33 -22 -24 -9 0
-8 -43 -22 -19 -35 -9 0
-8 -43 -33 -19 -24 -9 0
-2 -20 -36 -40 -43 -8 0
-2 -20 -36 -41 -43 -7 0
-2 -20 -37 -40 -41 -8 0
-2 -20 -37 -43 -41 -6 0
-2 -20 -38 -41 -40 -7 0
-2 -20 -38 -43 -40 -6 0
-2 -21 -36 -37 -43 -8 0
-2 -21 -36 -38 -43 -7 0
-2 -21 -40 -37 -38 -8 0
-2 -21 -40 -43 -38 -5 0
-2 -21 -41 -38 -37 -7 0
-2 -21 -41 -43 -37 -5 0
-2 -22 -37 -36 -41 -8 0
-2 -22 -37 -38 -41 -6 0
-2 -22 -40 -36 -38 -8 0
-2 -22 -40 -41 -38 -5 0
-2 -22 -43 -38 -36 -6 0
-2 -22 -43 -41 -36 -5 0
-2 -23 -38 -36 -40 -7 0
-2 -23 -38 -37 -40 -6 0
-2 -23 -41 -36 -37 -7 0
-2 -23 -41 -40 -37 -5 0
-2 -23 -43 -37 -36 -6 0
-2 -23 -43 -40 -36 -5 0
-5 -20 -21 -40 -43 -8 0
-5 -20 -21 -41 -43 -7 0
-5 -20 -22 -40 -41 -8 0
-5 -20 -22 -43 -41 -6 0
-5 -20 -23 -41 -40 -7 0
-5 -20 -23 -43 -40 -6 0
-5 -36 -21 -22 -43 -8 0
-5 -36 -21 -23 -43 -7 0
-5 -36 -40 -22 -23 -8 0
-5 -36 -41 -23 -22 -7 0
-5 -37 -22 -21 -41 -8 0
-5 -37 -22 -23 -41 -6 0
-5 -37 -40 -21 -23 -8 0
-5 -37 -43 -23 -21 -6 0
-5 -38 -23 -21 -40 -7 0
-5 -38 -23 -22 -40 -6 0
-5 -38 -41 -21 -22 -7 0
-5 -38 -43 -22 -21 -6 0
-6 -21 -20 -37 -43 -8 0
-6 -21 -20 -38 -43 -7 0
-6 -21 -22 -37 -38 -8 0
-6 -21 -23 -38 -37 -7 0
-6 -36 -20 -22 -43 -8 0
-6 -36 -20 -23 -43 -7 0
-6 -36 -37 -22 -23 -8 0
-6 -36 -38 -23 -22 -7 0
-6 -40 -22 -20 -38 -8 0
-6 -40 -37 -20 -23 -8 0
-6 -41 -23 -20 -37 -7 0
-6 -41 -38 -20 -22 -7 0
-7 -22 -20 -36 -41 -8 0
-7 -22 -21 -36 -38 -8 0
-7 -37 -20 -21 -41 -8 0
-7 -37 -36 -21 -23 -8 0
-7 -40 -21 -20 -38 -8 0
-7 -40 -36 -20 -23 -8 0
-2 -20 -36 -40 -44 -9 0
-2 -20 -36 -42 -44 -7 0
-2 -20 -37 -40 -42 -9 0
-2 -20 -37 -44 -42 -6 0
-2 -20 -39 -42 -40 -7 0
-2 -20 -39 -44 -40 -6 0
-2 -21 -36 -37 -44 -9 0
-2 -21 -36 -39 -44 -7 0
-2 -21 -40 -37 -39 -9 0
-2 -21 -40 -44 -39 -5 0
-2 -21 -42 -39 -37 -7 0
-2 -21 -42 -44 -37 -5 0
-2 -22 -37 -36 -42 -9 0
-2 -22 -37 -39 -42 -6 0
-2 -22 -40 -36 -39 -9 0
-2 -22 -40 -42 -39 -5 0
-2 -22 -44 -39 -36 -6 0
-2 -22 -44 -42 -36 -5 0
-2 -24 -39 -36 -40 -7 0
-2 -24 -39 -37 -40 -6 0
-2 -24 -42 -36 -37 -7 0
-2 -24 -42 -40 -37 -5 0
-2 -24 -44 -37 -36 -6 0
-2 -24 -44 -40 -36 -5 0
-5 -20 -21 -40 -44 -9 0
-5 -20 -21 -42 -44 -7 0
-5 -20 -22 -40 -42 -9 0
-5 -20 -22 -44 -42 -6 0
-5 -20 -24 -42 -40 -7 0
-5 -20 -24 -44 -40 -6 0
-5 -36 -21 -22 -44 -9 0
-5 -36 -21 -24 -44 -7 0
-5 -36 -40 -22 -24 -9 0
-5 -36 -42 -24 -22 -7 0
-5 -37 -22 -21 -42 -9 0
-5 -37 -22 -24 -42 -6 0
-5 -37 -40 -21 -24 -9 0
-5 -37 -44 -24 -21 -6 0
-5 -39 -24 -21 -40 -7 0
-5 -39 -24 -22 -40 -6 0
-5 -39 -42 -21 -22 -7 0
-5 -39 -44 -22 -21 -6 0
-6 -21 -20 -37 -44 -9 0
-6 -21 -20 -39 -44 -7 0
-6 -21 -22 -37 -39 -9 0
-6 -21 -24 -39 -37 -7 0
-6 -36 -20 -22 -44 -9 0
-6 -36 -20 -24 -44 -7 0
-6 -36 -37 -22 -24 -9 0
-6 -36 -39 -24 -22 -7 0
-6 -40 -22 -20 -39 -9 0
-6 -40 -37 -20 -24 -9 0
-6 -42 -24 -20 -37 -7 0
-6 -42 -39 -20 -22 -7 0
-7 -22 -20 -36 -42 -9 0
-7 -22 -21 -36 -39 -9 0
-7 -37 -20 -21 -42 -9 0
-7 -37 -36 -21 -24 -9 0
-7 -40 -21 -20 -39 -9 0
-7 -40 -36 -20 -24 -9 0
-2 -20 -36 -41 -45 -9 0
-2 -20 -36 -42 -45 -8 0
-2 -20 -38 -41 -42 -9 0
-2 -20 -38 -45 -42 -6 0
-2 -20 -39 -42 -41 -8 0
-2 -20 -39 -45 -41 -6 0
-2 -21 -36 -38 -45 -9 0
-2 -21 -36 -39 -45 -8 0
-2 -21 -41 -38 -39 -9 0
-2 -21 -41 -45 -39 -5 0
-2 -21 -42 -39 -38 -8 0
-2 -21 -42 -45 -38 -5 0
-2 -23 -38 -36 -42 -9 0
-2 -23 -38 -39 -42 -6 0
-2 -23 -41 -36 -39 -9 0
-2 -23 -41 -42 -39 -5 0
-2 -23 -45 -39 -36 -6 0
-2 -23 -45 -42 -36 -5 0
-2 -24 -39 -36 -41 -8 0
-2 -24 -39 -38 -41 -6 0
-2 -24 -42 -36 -38 -8 0
-2 -24 -42 -41 -38 -5 0
-2 -24 -45 -38 -36 -6 0
-2 -24 -45 -41 -36 -5 0
-5 -20 -21 -41 -45 -9 0
-5 -20 -21 -42 -45 -8 0
-5 -20 -23 -41 -42 -9 0
-5 -20 -23 -45 -42 -6 0
-5 -20 -24 -42 -41 -8 0
-5 -20 -24 -45 -41 -6 0
-5 -36 -21 -23 -45 -9 0
-5 -36 -21 -24 -45 -8 0
-5 -36 -41 -23 -24 -9 0
-5 -36 -42 -24 -23 -8 0
-5 -38 -23 -21 -42 -9 0
-5 -38 -23 -24 -42 -6 0
-5 -38 -41 -21 -24 -9 0
-5 -38 -45 -24 -21 -6 0
-5 -39 -24 -21 -41 -8 0
-5 -39 -24 -23 -41 -6 0
-5 -39 -42 -21 -23 -8 0
-5 -39 -45 -23 -21 -6 0
-6 -21 -20 -38 -45 -9 0
-6 -21 -20 -39 -45 -8 0
-6 -21 -23 -38 -39 -9 0
-6 -21 -24 -39 -38 -8 0
-6 -36 -20 -23 -45 -9 0
-6 -36 -20 -24 -45 -8 0
-6 -36 -38 -23 -24 -9 0
-6 -36 -39 -24 -23 -8 0
-6 -41 -23 -20 -39 -9 0
-6 -41 -38 -20 -24 -9 0
-6 -42 -24 -20 -38 -8 0
-6 -42 -39 -20 -23 -8 0
-8 -23 -20 -36 -42 -9 0
-8 -23 -21 -36 -39 -9 0
-8 -38 -20 -21 -42 -9 0
-8 -38 -36 -21 -24 -9 0
-8 -41 -21 -20 -39 -9 0
-8 -41 -36 -20 -24 -9 0
-2 -20 -37 -43 -45 -9 0
-2 -20 -37 -44 -45 -8 0
-2 -20 -38 -43 -44 -9 0
-2 -20 -38 -45 -44 -7 0
-2 -20 -39 -44 -43 -8 0
-2 -20 -39 -45 -43 -7 0
-2 -22 -37 -38 -45 -9 0
-2 -22 -37 -39 -45 -8 0
-2 -22 -43 -38 -39 -9 0
-2 -22 -43 -45 -39 -5 0
-2 -22 -44 -39 -38 -8 0
-2 -22 -44 -45 -38 -5 0
-2 -23 -38 -37 -44 -9 0
-2 -23 -38 -39 -44 -7 0
-2 -23 -43 -37 -39 -9 0
-2 -23 -43 -44 -39 -5 0
-2 -23 -45 -39 -37 -7 0
-2 -23 -45 -44 -37 -5 0
-2 -24 -39 -37 -43 -8 0
-2 -24 -39 -38 -43 -7 0
-2 -24 -44 -37 -38 -8 0
-2 -24 -44 -43 -38 -5 0
-2 -24 -45 -38 -37 -7 0
-2 -24 -45 -43 -37 -5 0
-5 -20 -22 -43 -45 -9 0
-5 -20 -22 -44 -45 -8 0
-5 -20 -23 -43 -44 -9 0
-5 -20 -23 -45 -44 -7 0
-5 -20 -24 -44 -43 -8 0
-5 -20 -24 -45 -43 -7 0
-5 -37 -22 -23 -45 -9 0
-5 -37 -22 -24 -45 -8 0
-5 -37 -43 -23 -24 -9 0
-5 -37 -44 -24 -23 -8 0
-5 -38 -23 -22 -44 -9 0
-5 -38 -23 -24 -44 -7 0
-5 -38 -43 -22 -24 -9 0
-5 -38 -45 -24 -22 -7 0
-5 -39 -24 -22 -43 -8 0
-5 -39 -24 -23 -43 -7 0
-5 -39 -44 -22 -23 -8 0
-5 -39 -45 -23 -22 -7 0
-7 -22 -20 -38 -45 -9 0
-7 -22 -20 -39 -45 -8 0
-7 -22 -23 -38 -39 -9 0
-7 -22 -24 -39 -38 -8 0
-7 -37 -20 -23 -45 -9 0
-7 -37 -20 -24 -45 -8 0
-7 -37 -38 -23 -24 -9 0
-7 -37 -39 -24 -23 -8 0
-7 -43 -23 -20 -39 -9 0
-7 -43 -38 -20 -24 -9 0
-7 -44 -24 -20 -38 -8 0
-7 -44 -39 -20 -23 -8 0
-8 -23 -20 -37 -44 -9 0
-8 -23 -22 -37 -39 -9 0
-8 -38 -20 -22 -44 -9 0
-8 -38 -37 -22 -24 -9 0
-8 -43 -22 -20 -39 -9 0
-8 -43 -37 -20 -24 -9 0
-2 -21 -40 -43 -45 -9 0
-2 -21 -40 -44 -45 -8 0
-2 -21 -41 -43 -44 -9 0
-2 -21 -41 -45 -44 -7 0
-2 -21 -42 -44 -43 -8 0
-2 -21 -42 -45 -43 -7 0
-2 -22 -40 -41 -45 -9 0
-2 -22 -40 -42 -45 -8 0
-2 -22 -43 -41 -42 -9 0
-2 -22 -43 -45 -42 -6 0
-2 -22 -44 -42 -41 -8 0
-2 -22 -44 -45 -41 -6 0
-2 -23 -41 -40 -44 -9 0
-2 -23 -41 -42 -44 -7 0
-2 -23 -43 -40 -42 -9 0
-2 -23 -43 -44 -42 -6 0
-2 -23 -45 -42 -40 -7 0
-2 -23 -45 -44 -40 -6 0
-2 -24 -42 -40 -43 -8 0
-2 -24 -42 -41 -43 -7 0
-2 -24 -44 -40 -41 -8 0
-2 -24 -44 -43 -41 -6 0
-2 -24 -45 -41 -40 -7 0
-2 -24 -45 -43 -40 -6 0
-6 -21 -22 -43 -45 -9 0
-6 -21 -22 -44 -45 -8 0
-6 -21 -23 -43 -44 -9 0
-6 -21 -23 -45 -44 -7 0
-6 -21 -24 -44 -43 -8 0
-6 -21 -24 -45 -43 -7 0
-6 -40 -22 -23 -45 -9 0
-6 -40 -22 -24 -45 -8 0
-6 -40 -43 -23 -24 -9 0
-6 -40 -44 -24 -23 -8 0
-6 -41 -23 -22 -44 -9 0
-6 -41 -23 -24 -44 -7 0
-6 -41 -43 -22 -24 -9 0
-6 -41 -45 -24 -22 -7 0
-6 -42 -24 -22 -43 -8 0
-6 -42 -24 -23 -43 -7 0
-6 -42 -44 -22 -23 -8 0
-6 -42 -45 -23 -22 -7 0
-7 -22 -21 -41 -45 -9 0
-7 -22 -21 -42 -45 -8 0
-7 -22 -23 -41 -42 -9 0
-7 -22 -24 -42 -41 -8 0
-7 -40 -21 -23 -45 -9 0
-7 -40 -21 -24 -45 -8 0
-7 -40 -41 -23 -24 -9 0
-7 -40 -42 -24 -23 -8 0
-7 -43 -23 -21 -42 -9 0
-7 -43 -41 -21 -24 -9 0
-7 -44 -24 -21 -41 -8 0
-7 -44 -42 -21 -23 -8 0
-8 -23 -21 -40 -44 -9 0
-8 -23 -22 -40 -42 -9 0
-8 -41 -21 -22 -44 -9 0
-8 -41 -40 -22 -24 -9 0
-8 -43 -22 -21 -42 -9 0
-8 -43 -40 -21 -24 -9 0
-3 -25 -31 -36 -40 -7 0
-3 -25 -31 -37 -40 -6 0
-3 -25 -32 -36 -37 -7 0
-3 -25 -32 -40 -37 -5 0
-3 -25 -33 -37 -36 -6 0
-3 -25 -33 -40 -36 -5 0
-3 -26 -31 -32 -40 -7 0
-3 -26 -31 -33 -40 -6 0
-3 -26 -36 -32 -33 -7 0
-3 -26 -36 -40 -33 -4 0
-3 -26 -37 -33 -32 -6 0
-3 -26 -37 -40 -32 -4 0
-3 -27 -32 -31 -37 -7 0
-3 -27 -32 -33 -37 -5 0
-3 -27 -36 -31 -33 -7 0
-3 -27 -36 -37 -33 -4 0
-3 -27 -40 -33 -31 -5 0
-3 -27 -40 -37 -31 -4 0
-3 -28 -33 -31 -36 -6 0
-3 -28 -33 -32 -36 -5 0
-3 -28 -37 -31 -32 -6 0
-3 -28 -37 -36 -32 -4 0
-3 -28 -40 -32 -31 -5 0
-3 -28 -40 -36 -31 -4 0
-4 -25 -26 -36 -40 -7 0
-4 -25 -26 -37 -40 -6 0
-4 -25 -27 -36 -37 -7 0
-4 -25 -27 -40 -37 -5 0
-4 -25 -28 -37 -36 -6 0
-4 -25 -28 -40 -36 -5 0
-4 -31 -26 -27 -40 -7 0
-4 -31 -26 -28 -40 -6 0
-4 -31 -36 -27 -28 -7 0
-4 -31 -37 -28 -27 -6 0
-4 -32 -27 -26 -37 -7 0
-4 -32 -27 -28 -37 -5 0
-4 -32 -36 -26 -28 -7 0
-4 -32 -40 -28 -26 -5 0
-4 -33 -28 -26 -36 -6 0
-4 -33 -28 -27 -36 -5 0
-4 -33 -37 -26 -27 -6 0
-4 -33 -40 -27 -26 -5 0
-5 -26 -25 -32 -40 -7 0
-5 -26 -25 -33 -40 -6 0
-5 -26 -27 -32 -33 -7 0
-5 -26 -28 -33 -32 -6 0
-5 -31 -25 -27 -40 -7 0
-5 -31 -25 -28 -40 -6 0
-5 -31 -32 -27 -28 -7 0
-5 -31 -33 -28 -27 -6 0
-5 -36 -27 -25 -33 -7 0
-5 -36 -32 -25 -28 -7 0
-5 -37 -28 -25 -32 -6 0
-5 -37 -33 -25 -27 -6 0
-6 -27 -25 -31 -37 -7 0
-6 -27 -26 -31 -33 -7 0
-6 -32 -25 -26 -37 -7 0
-6 -32 -31 -26 -28 -7 0
-6 -36 -26 -25 -33 -7 0
-6 -36 -31 -25 -28 -7 0
-3 -25 -31 -36 -41 -8 0
-3 -25 -31 -38 -41 -6 0
-3 -25 -32 -36 -38 -8 0
-3 -25 -32 -41 -38 -5 0
-3 -25 -34 -38 -36 -6 0
-3 -25 -34 -41 -36 -5 0
-3 -26 -31 -32 -41 -8 0
-3 -26 -31 -34 -41 -6 0
-3 -26 -36 -32 -34 -8 0
-3 -26 -36 -41 -34 -4 0
-3 -26 -38 -34 -32 -6 0
-3 -26 -38 -41 -32 -4 0
-3 -27 -32 -31 -38 -8 0
-3 -27 -32 -34 -38 -5 0
-3 -27 -36 -31 -34 -8 0
-3 -27 -36 -38 -34 -4 0
-3 -27 -41 -34 -31 -5 0
-3 -27 -41 -38 -31 -4 0
-3 -29 -34 -31 -36 -6 0
-3 -29 -34 -32 -36 -5 0
-3 -29 -38 -31 -32 -6 0
-3 -29 -38 -36 -32 -4 0
-3 -29 -41 -32 -31 -5 0
-3 -29 -41 -36 -31 -4 0
-4 -25 -26 -36 -41 -8 0
-4 -25 -26 -38 -41 -6 0
-4 -25 -27 -36 -38 -8 0
-4 -25 -27 -41 -38 -5 0
-4 -25 -29 -38 -36 -6 0
-4 -25 -29 -41 -36 -5 0
-4 -31 -26 -27 -41 -8 0
-4 -31 -26 -29 -41 -6 0
-4 -31 -36 -27 -29 -8 0
-4 -31 -38 -29 -27 -6 0
-4 -32 -27 -26 -38 -8 0
-4 -32 -27 -29 -38 -5 0
-4 -32 -36 -26 -29 -8 0
-4 -32 -41 -29 -26 -5 0
-4 -34 -29 -26 -36 -6 0
-4 -34 -29 -27 -36 -5 0
-4 -34 -38 -26 -27 -6 0
-4 -34 -41 -27 -26 -5 0
-5 -26 -25 -32 -41 -8 0
-5 -26 -25 -34 -41 -6 0
-5 -26 -27 -32 -34 -8 0
-5 -26 -29 -34 -32 -6 0
-5 -31 -25 -27 -41 -8 0
-5 -31 -25 -29 -41 -6 0
-5 -31 -32 -27 -29 -8 0
-5 -31 -34 -29 -27 -6 0
-5 -36 -27 -25 -34 -8 0
-5 -36 -32 -25 -29 -8 0
-5 -38 -29 -25 -32 -6 0
-5 -38 -34 -25 -27 -6 0
-6 -27 -25 -31 -38 -8 0
-6 -27 -26 -31 -34 -8 0
-6 -32 -25 -26 -38 -8 0
-6 -32 -31 -26 -29 -8 0
-6 -36 -26 -25 -34 -8 0
-6 -36 -31 -25 -29 -8 0
-3 -25 -31 -36 -42 -9 0
-3 -25 -31 -39 -42 -6 0
-3 -25 -32 -36 -39 -9 0
-3 -25 -32 -42 -39 -5 0
-3 -25 -35 -39 -36 -6 0
-3 -25 -35 -42 -36 -5 0
-3 -26 -31 -32 -42 -9 0
-3 -26 -31 -35 -42 -6 0
-3 -26 -36 -32 -35 -9 0
-3 -26 -36 -42 -35 -4 0
-3 -26 -39 -35 -32 -6 0
-3 -26 -39 -42 -32 -4 0
-3 -27 -32 -31 -39 -9 0
-3 -27 -32 -35 -39 -5 0
-3 -27 -36 -31 -35 -9 0
-3 -27 -36 -39 -35 -4 0
-3 -27 -42 -35 -31 -5 0
-3 -27 -42 -39 -31 -4 0
-3 -30 -35 -31 -36 -6 0
-3 -30 -35 -32 -36 -5 0
-3 -30 -39 -31 -32 -6 0
-3 -30 -39 -36 -32 -4 0
-3 -30 -42 -32 -31 -5 0
-3 -30 -42 -36 -31 -4 0
-4 -25 -26 -36 -42 -9 0
-4 -25 -26 -39 -42 -6 0
-4 -25 -27 -36 -39 -9 0
-4 -25 -27 -42 -39 -5 0
-4 -25 -30 -39 -36 -6 0
-4 -25 -30 -42 -36 -5 0
-4 -31 -26 -27 -42 -9 0
-4 -31 -26 -30 -42 -6 0
-4 -31 -36 -27 -30 -9 0
-4 -31 -39 -30 -27 -6 0
-4 -32 -27 -26 -39 -9 0
-4 -32 -27 -30 -39 -5 0
-4 -32 -36 -26 -30 -9 0
-4 -32 -42 -30 -26 -5 0
-4 -35 -30 -26 -36 -6 0
-4 -35 -30 -27 -36 -5 0
-4 -35 -39 -26 -27 -6 0
-4 -35 -42 -27 -26 -5 0
-5 -26 -25 -32 -42 -9 0
-5 -26 -25 -35 -42 -6 0
-5 -26 -27 -32 -35 -9 0
-5 -26 -30 -35 -32 -6 0
-5 -31 -25 -27 -42 -9 0
-5 -31 -25 -30 -42 -6 0
-5 -31 -32 -27 -30 -9 0
-5 -31 -35 -30 -27 -6 0
-5 -36 -27 -25 -35 -9 0
-5 -36 -32 -25 -30 -9 0
-5 -39 -30 -25 -32 -6 0
-5 -39 -35 -25 -27 -6 0
-6 -27 -25 -31 -39 -9 0
-6 -27 -26 -31 -35 -9 0
-6 -32 -25 -26 -39 -9 0
-6 -32 -31 -26 -30 -9 0
-6 -36 -26 -25 -35 -9 0
-6 -36 -31 -25 -30 -9 0
-3 -25 -31 -37 -43 -8 0
-3 -25 -31 -38 -43 -7 0
-3 -25 -33 -37 -38 -8 0
-3 -25 -33 -43 -38 -5 0
-3 -25 -34 -38 -37 -7 0
-3 -25 -34 -43 -37 -5 0
-3 -26 -31 -33 -43 -8 0
-3 -26 -31 -34 -43 -7 0
-3 -26 -37 -33 -34 -8 0
-3 -26 -37 -43 -34 -4 0
-3 -26 -38 -34 -33 -7 0
-3 -26 -38 -43 -33 -4 0
-3 -28 -33 -31 -38 -8 0
-3 -28 -33 -34 -38 -5 0
-3 -28 -37 -31 -34 -8 0
-3 -28 -37 -38 -34 -4 0
-3 -28 -43 -34 -31 -5 0
-3 -28 -43 -38 -31 -4 0
-3 -29 -34 -31 -37 -7 0
-3 -29 -34 -33 -37 -5 0
-3 -29 -38 -31 -33 -7 0
-3 -29 -38 -37 -33 -4 0
-3 -29 -43 -33 -31 -5 0
-3 -29 -43 -37 -31 -4 0
-4 -25 -26 -37 -43 -8 0
-4 -25 -26 -38 -43 -7 0
-4 -25 -28 -37 -38 -8 0
-4 -25 -28 -43 -38 -5 0
-4 -25 -29 -38 -37 -7 0
-4 -25 -29 -43 -37 -5 0
-4 -31 -26 -28 -43 -8 0
-4 -31 -26 -29 -43 -7 0
-4 -31 -37 -28 -29 -8 0
-4 -31 -38 -29 -28 -7 0
-4 -33 -28 -26 -38 -8 0
-4 -33 -28 -29 -38 -5 0
-4 -33 -37 -26 -29 -8 0
-4 -33 -43 -29 -26 -5 0
-4 -34 -29 -26 -37 -7 0
-4 -34 -29 -28 -37 -5 0
-4 -34 -38 -26 -28 -7 0
-4 -34 -43 -28 -26 -5 0
-5 -26 -25 -33 -43 -8 0
-5 -26 -25 -34 -43 -7 0
-5 -26 -28 -33 -34 -8 0
-5 -26 -29 -34 -33 -7 0
-5 -31 -25 -28 -43 -8 0
-5 -31 -25 -29 -43 -7 0
-5 -31 -33 -28 -29 -8 0
-5 -31 -34 -29 -28 -7 0
-5 -37 -28 -25 -34 -8 0
-5 -37 -33 -25 -29 -8 0
-5 -38 -29 -25 -33 -7 0
-5 -38 -34 -25 -28 -7 0
-7 -28 -25 -31 -38 -8 0
-7 -28 -26 -31 -34 -8 0
-7 -33 -25 -26 -38 -8 0
-7 -33 -31 -26 -29 -8 0
-7 -37 -26 -25 -34 -8 0
-7 -37 -31 -25 -29 -8 0
-3 -25 -31 -37 -44 -9 0
-3 -25 -31 -39 -44 -7 0
-3 -25 -33 -37 -39 -9 0
-3 -25 -33 -44 -39 -5 0
-3 -25 -35 -39 -37 -7 0
-3 -25 -35 -44 -37 -5 0
-3 -26 -31 -33 -44 -9 0
-3 -26 -31 -35 -44 -7 0
-3 -26 -37 -33 -35 -9 0
-3 -26 -37 -44 -35 -4 0
-3 -26 -39 -35 -33 -7 0
-3 -26 -39 -44 -33 -4 0
-3 -28 -33 -31 -39 -9 0
-3 -28 -33 -35 -39 -5 0
-3 -28 -37 -31 -35 -9 0
-3 -28 -37 -39 -35 -4 0
-3 -28 -44 -35 -31 -5 0
-3 -28 -44 -39 -31 -4 0
-3 -30 -35 -31 -37 -7 0
-3 -30 -35 -33 -37 -5 0
-3 -30 -39 -31 -33 -7 0
-3 -30 -39 -37 -33 -4 0
-3 -30 -44 -33 -31 -5 0
-3 -30 -44 -37 -31 -4 0
-4 -25 -26 -37 -44 -9 0
-4 -25 -26 -39 -44 -7 0
-4 -25 -28 -37 -39 -9 0
-4 -25 -28 -44 -39 -5 0
-4 -25 -30 -39 -37 -7 0
-4 -25 -30 -44 -37 -5 0
-4 -31 -26 -28 -44 -9 0
-4 -31 -26 -30 -44 -7 0
-4 -31 -37 -28 -30 -9 0
-4 -31 -39 -30 -28 -7 0
-4 -33 -28 -26 -39 -9 0
-4 -33 -28 -30 -39 -5 0
-4 -33 -37 -26 -30 -9 0
-4 -33 -44 -30 -26 -5 0
-4 -35 -30 -26 -37 -7 0
-4 -35 -30 -28 -37 -5 0
-4 -35 -39 -26 -28 -7 0
-4 -35 -44 -28 -26 -5 0
-5 -26 -25 -33 -44 -9 0
-5 -26 -25 -35 -44 -7 0
-5 -26 -28 -33 -35 -9 0
-5 -26 -30 -35 -33 -7 0
-5 -31 -25 -28 -44 -9 0
-5 -31 -25 -30 -44 -7 0
-5 -31 -33 -28 -30 -9 0
-5 -31 -35 -30 -28 -7 0
-5 -37 -28 -25 -35 -9 0
-5 -37 -33 -25 -30 -9 0
-5 -39 -30 -25 -33 -7 0
-5 -39 -35 -25 -28 -7 0
-7 -28 -25 -31 -39 -9 0
-7 -28 -26 -31 -35 -9 0
-7 -33 -25 -26 -39 -9 0
-7 -33 -31 -26 -30 -9 0
-7 -37 -26 -25 -35 -9 0
-7 -37 -31 -25 -30 -9 0
-3 -25 -31 -38 -45 -9 0
-3 -25 -31 -39 -45 -8 0
-3 -25 -34 -38 -39 -9 0
-3 -25 -34 -45 -39 -5 0
-3 -25 -35 -39 -38 -8 0
-3 -25 -35 -45 -38 -5 0
-3 -26 -31 -34 -45 -9 0
-3 -26 -31 -35 -45 -8 0
-3 -26 -38 -34 -35 -9 0
-3 -26 -38 -45 -35 -4 0
-3 -26 -39 -35 -34 -8 0
-3 -26 -39 -45 -34 -4 0
-3 -29 -34 -31 -39 -9 0
-3 -29 -34 -35 -39 -5 0
-3 -29 -38 -31 -35 -9 0
-3 -29 -38 -39 -35 -4 0
-3 -29 -45 -35 -31 -5 0
-3 -29 -45 -39 -31 -4 0
-3 -30 -35 -31 -38 -8 0
-3 -30 -35 -34 -38 -5 0
-3 -30 -39 -31 -34 -8 0
-3 -30 -39 -38 -34 -4 0
-3 -30 -45 -34 -31 -5 0
-3 -30 -45 -38 -31 -4 0
-4 -25 -26 -38 -45 -9 0
-4 -25 -26 -39 -45 -8 0
-4 -25 -29 -38 -39 -9 0
-4 -25 -29 -45 -39 -5 0
-4 -25 -30 -39 -38 -8 0
-4 -25 -30 -45 -38 -5 0
-4 -31 -26 -29 -45 -9 0
-4 -31 -26 -30 -45 -8 0
-4 -31 -38 -29 -30 -9 0
-4 -31 -39 -30 -29 -8 0
-4 -34 -29 -26 -39 -9 0
-4 -34 -29 -30 -39 -5 0
-4 -34 -38 -26 -30 -9 0
-4 -34 -45 -30 -26 -5 0
-4 -35 -30 -26 -38 -8 0
-4 -35 -30 -29 -38 -5 0
-4 -35 -39 -26 -29 -8 0
-4 -35 -45 -29 -26 -5 0
-5 -26 -25 -34 -45 -9 0
-5 -26 -25 -35 -45 -8 0
-5 -26 -29 -34 -35 -9 0
-5 -26 -30 -35 -34 -8 0
-5 -31 -25 -29 -45 -9 0
-5 -31 -25 -30 -45 -8 0
-5 -31 -34 -29 -30 -9 0
-5 -31 -35 -30 -29 -8 0
-5 -38 -29 -25 -35 -9 0
-5 -38 -34 -25 -30 -9 0
-5 -39 -30 -25 -34 -8 0
-5 -39 -35 -25 -29 -8 0
-8 -29 -25 -31 -39 -9 0
-8 -29 -26 -31 -35 -9 0
-8 -34 -25 -26 -39 -9 0
-8 -34 -31 -26 -30 -9 0
-8 -38 -26 -25 -35 -9 0
-8 -38 -31 -25 -30 -9 0
-3 -25 -32 -40 -43 -8 0
-3 -25 -32 -41 -43 -7 0
-3 -25 -33 -40 -41 -8 0
-3 -25 -33 -43 -41 -6 0
-3 -25 -34 -41 -40 -7 0
-3 -25 -34 -43 -40 -6 0
-3 -27 -32 -33 -43 -8 0
-3 -27 -32 -34 -43 -7 0
-3 -27 -40 -33 -34 -8 0
-3 -27 -40 -43 -34 -4 0
-3 -27 -41 -34 -33 -7 0
-3 -27 -41 -43 -33 -4 0
-3 -28 -33 -32 -41 -8 0
-3 -28 -33 -34 -41 -6 0
-3 -28 -40 -32 -34 -8 0
-3 -28 -40 -41 -34 -4 0
-3 -28 -43 -34 -32 -6 0
-3 -28 -43 -41 -32 -4 0
-3 -29 -34 -32 -40 -7 0
-3 -29 -34 -33 -40 -6 0
-3 -29 -41 -32 -33 -7 0
-3 -29 -41 -40 -33 -4 0
-3 -29 -43 -33 -32 -6 0
-3 -29 -43 -40 -32 -4 0
-4 -25 -27 -40 -43 -8 0
-4 -25 -27 -41 -43 -7 0
-4 -25 -28 -40 -41 -8 0
-4 -25 -28 -43 -41 -6 0
-4 -25 -29 -41 -40 -7 0
-4 -25 -29 -43 -40 -6 0
-4 -32 -27 -28 -43 -8 0
-4 -32 -27 -29 -43 -7 0
-4 -32 -40 -28 -29 -8 0
-4 -32 -41 -29 -28 -7 0
-4 -33 -28 -27 -41 -8 0
-4 -33 -28 -29 -41 -6 0
-4 -33 -40 -27 -29 -8 0
-4 -33 -43 -29 -27 -6 0
-4 -34 -29 -27 -40 -7 0
-4 -34 -29 -28 -40 -6 0
-4 -34 -41 -27 -28 -7 0
-4 -34 -43 -28 -27 -6 0
-6 -27 -25 -33 -43 -8 0
-6 -27 -25 -34 -43 -7 0
-6 -27 -28 -33 -34 -8 0
-6 -27 -29 -34 -33 -7 0
-6 -32 -25 -28 -43 -8 0
-6 -32 -25 -29 -43 -7 0
-6 -32 -33 -28 -29 -8 0
-6 -32 -34 -29 -28 -7 0
-6 -40 -28 -25 -34 -8 0
-6 -40 -33 -25 -29 -8 0
-6 -41 -29 -25 -33 -7 0
-6 -41 -34 -25 -28 -7 0
-7 -28 -25 -32 -41 -8 0
-7 -28 -27 -32 -34 -8 0
-7 -33 -25 -27 -41 -8 0
-7 -33 -32 -27 -29 -8 0
-7 -40 -27 -25 -34 -8 0
-7 -40 -32 -25 -29 -8 0
-3 -25 -32 -40 -44 -9 0
-3 -25 -32 -42 -44 -7 0
-3 -25 -33 -40 -42 -9 0
-3 -25 -33 -44 -42 -6 0
-3 -25 -35 -42 -40 -7 0
-3 -25 -35 -44 -40 -6 0
-3 -27 -32 -33 -44 -9 0
-3 -27 -32 -35 -44 -7 0
-3 -27 -40 -33 -35 -9 0
-3 -27 -40 -44 -35 -4 0
-3 -27 -42 -35 -33 -7 0
-3 -27 -42 -44 -33 -4 0
-3 -28 -33 -32 -42 -9 0
-3 -28 -33 -35 -42 -6 0
-3 -28 -40 -32 -35 -9 0
-3 -28 -40 -42 -35 -4 0
-3 -28 -44 -35 -32 -6 0
-3 -28 -44 -42 -32 -4 0
-3 -30 -35 -32 -40 -7 0
-3 -30 -35 -33 -40 -6 0
-3 -30 -42 -32 -33 -7 0
-3 -30 -42 -40 -33 -4 0
-3 -30 -44 -33 -32 -6 0
-3 -30 -44 -40 -32 -4 0
-4 -25 -27 -40 -44 -9 0
-4 -25 -27 -42 -44 -7 0
-4 -25 -28 -40 -42 -9 0
-4 -25 -28 -44 -42 -6 0
-4 -25 -30 -42 -40 -7 0
-4 -25 -30 -44 -40 -6 0
-4 -32 -27 -28 -44 -9 0
-4 -32 -27 -30 -44 -7 0
-4 -32 -40 -28 -30 -9 0
-4 -32 -42 -30 -28 -7 0
-4 -33 -28 -27 -42 -9 0
-4 -33 -28 -30 -42 -6 0
-4 -33 -40 -27 -30 -9 0
-4 -33 -44 -30 -27 -6 0
-4 -35 -30 -27 -40 -7 0
-4 -35 -30 -28 -40 -6 0
-4 -35 -42 -27 -28 -7 0
-4 -35 -44 -28 -27 -6 0
-6 -27 -25 -33 -44 -9 0
-6 -27 -25 -35 -44 -7 0
-6 -27 -28 -33 -35 -9 0
-6 -27 -30 -35 -33 -7 0
-6 -32 -25 -28 -44 -9 0
-6 -32 -25 -30 -44 -7 0
-6 -32 -33 -28 -30 -9 0
-6 -32 -35 -30 -28 -7 0
-6 -40 -28 -25 -35 -9 0
-6 -40 -33 -25 -30 -9 0
-6 -42 -30 -25 -33 -7 0
-6 -42 -35 -25 -28 -7 0
-7 -28 -25 -32 -42 -9 0
-7 -28 -27 -32 -35 -9 0
-7 -33 -25 -27 -42 -9 0
-7 -33 -32 -27 -30 -9 0
-7 -40 -27 -25 -35 -9 0
-7 -40 -32 -25 -30 -9 0
-3 -25 -32 -41 -45 -9 0
-3 -25 -32 -42 -45 -8 0
-3 -25 -34 -41 -42 -9 0
-3 -25 -34 -45 -42 -6 0
-3 -25 -35 -42 -41 -8 0
-3 -25 -35 -45 -41 -6 0
-3 -27 -32 -34 -45 -9 0
-3 -27 -32 -35 -45 -8 0
-3 -27 -41 -34 -35 -9 0
-3 -27 -41 -45 -35 -4 0
-3 -27 -42 -35 -34 -8 0
-3 -27 -42 -45 -34 -4 0
-3 -29 -34 -32 -42 -9 0
-3 -29 -34 -35 -42 -6 0
-3 -29 -41 -32 -35 -9 0
-3 -29 -41 -42 -35 -4 0
-3 -29 -45 -35 -32 -6 0
-3 -29 -45 -42 -32 -4 0
-3 -30 -35 -32 -41 -8 0
-3 -30 -35 -34 -41 -6 0
-3 -30 -42 -32 -34 -8 0
-3 -30 -42 -41 -34 -4 0
-3 -30 -45 -34 -32 -6 0
-3 -30 -45 -41 -32 -4 0
-4 -25 -27 -41 -45 -9 0
-4 -25 -27 -42 -45 -8 0
-4 -25 -29 -41 -42 -9 0
-4 -25 -29 -45 -42 -6 0
-4 -25 -30 -42 -41 -8 0
-4 -25 -30 -45 -41 -6 0
-4 -32 -27 -29 -45 -9 0
-4 -32 -27 -30 -45 -8 0
-4 -32 -41 -29 -30 -9 0
-4 -32 -42 -30 -29 -8 0
-4 -34 -29 -27 -42 -9 0
-4 -34 -29 -30 -42 -6 0
-4 -34 -41 -27 -30 -9 0
-4 -34 -45 -30 -27 -6 0
-4 -35 -30 -27 -41 -8 0
-4 -35 -30 -29 -41 -6 0
-4 -35 -42 -27 -29 -8 0
-4 -35 -45 -29 -27 -6 0
-6 -27 -25 -34 -45 -9 0
-6 -27 -25 -35 -45 -8 0
-6 -27 -29 -34 -35 -9 0
-6 -27 -30 -35 -34 -8 0
-6 -32 -25 -29 -45 -9 0
-6 -32 -25 -30 -45 -8 0
-6 -32 -34 -29 -30 -9 0
-6 -32 -35 -30 -29 -8 0
-6 -41 -29 -25 -35 -9 0
-6 -41 -34 -25 -30 -9 0
-6 -42 -30 -25 -34 -8 0
-6 -42 -35 -25 -29 -8 0
-8 -29 -25 -32 -42 -9 0
-8 -29 -27 -32 -35 -9 0
-8 -34 -25 -27 -42 -9 0
-8 -34 -32 -27 -30 -9 0
-8 -41 -27 -25 -35 -9 0
-8 -41 -32 -25 -30 -9 0
-3 -25 -33 -43 -45 -9 0
-3 -25 -33 -44 -45 -8 0
-3 -25 -34 -43 -44 -9 0
-3 -25 -34 -45 -44 -7 0
-3 -25 -35 -44 -43 -8 0
-3 -25 -35 -45 -43 -7 0
-3 -28 -33 -34 -45 -9 0
-3 -28 -33 -35 -45 -8 0
-3 -28 -43 -34 -35 -9 0
-3 -28 -43 -45 -35 -4 0
-3 -28 -44 -35 -34 -8 0
-3 -28 -44 -45 -34 -4 0
-3 -29 -34 -33 -44 -9 0
-3 -29 -34 -35 -44 -7 0
-3 -29 -43 -33 -35 -9 0
-3 -29 -43 -44 -35 -4 0
-3 -29 -45 -35 -33 -7 0
-3 -29 -45 -44 -33 -4 0
-3 -30 -35 -33 -43 -8 0
-3 -30 -35 -34 -43 -7 0
-3 -30 -44 -33 -34 -8 0
-3 -30 -44 -43 -34 -4 0
-3 -30 -45 -34 -33 -7 0
-3 -30 -45 -43 -33 -4 0
-4 -25 -28 -43 -45 -9 0
-4 -25 -28 -44 -45 -8 0
-4 -25 -29 -43 -44 -9 0
-4 -25 -29 -45 -44 -7 0
-4 -25 -30 -44 -43 -8 0
-4 -25 -30 -45 -43 -7 0
-4 -33 -28 -29 -45 -9 0
-4 -33 -28 -30 -45 -8 0
-4 -33 -43 -29 -30 -9 0
-4 -33 -44 -30 -29 -8 0
-4 -34 -29 -28 -44 -9 0
-4 -34 -29 -30 -44 -7 0
-4 -34 -43 -28 -30 -9 0
-4 -34 -45 -30 -28 -7 0
-4 -35 -30 -28 -43 -8 0
-4 -35 -30 -29 -43 -7 0
-4 -35 -44 -28 -29 -8 0
-4 -35 -45 -29 -28 -7 0
-7 -28 -25 -34 -45 -9 0
-7 -28 -25 -35 -45 -8 0
-7 -28 -29 -34 -35 -9 0
-7 -28 -30 -35 -34 -8 0
-7 -33 -25 -29 -45 -9 0
-7 -33 -25 -30 -45 -8 0
-7 -33 -34 -29 -30 -9 0
-7 -33 -35 -30 -29 -8 0
-7 -43 -29 -25 -35 -9 0
-7 -43 -34 -25 -30 -9 0
-7 -44 -30 -25 -34 -8 0
-7 -44 -35 -25 -29 -8 0
-8 -29 -25 -33 -44 -9 0
-8 -29 -28 -33 -35 -9 0
-8 -34 -25 -28 -44 -9 0
-8 -34 -33 -28 -30 -9 0
-8 -43 -28 -25 -35 -9 0
-8 -43 -33 -25 -30 -9 0
-3 -26 -36 -40 -43 -8 0
-3 -26 -36 -41 -43 -7 0
-3 -26 -37 -40 -41 -8 0
-3 -26 -37 -43 -41 -6 0
-3 -26 -38 -41 -40 -7 0
-3 -26 -38 -43 -40 -6 0
-3 -27 -36 -37 -43 -8 0
-3 -27 -36 -38 -43 -7 0
-3 -27 -40 -37 -38 -8 0
-3 -27 -40 -43 -38 -5 0
-3 -27 -41 -38 -37 -7 0
-3 -27 -41 -43 -37 -5 0
-3 -28 -37 -36 -41 -8 0
-3 -28 -37 -38 -41 -6 0
-3 -28 -40 -36 -38 -8 0
-3 -28 -40 -41 -38 -5 0
-3 -28 -43 -38 -36 -6 0
-3 -28 -43 -41 -36 -5 0
-3 -29 -38 -36 -40 -7 0
-3 -29 -38 -37 -40 -6 0
-3 -29 -41 -36 -37 -7 0
-3 -29 -41 -40 -37 -5 0
-3 -29 -43 -37 -36 -6 0
-3 -29 -43 -40 -36 -5 0
-5 -26 -27 -40 -43 -8 0
-5 -26 -27 -41 -43 -7 0
-5 -26 -28 -40 -41 -8 0
-5 -26 -28 -43 -41 -6 0
-5 -26 -29 -41 -40 -7 0
-5 -26 -29 -43 -40 -6 0
-5 -36 -27 -28 -43 -8 0
-5 -36 -27 -29 -43 -7 0
-5 -36 -40 -28 -29 -8 0
-5 -36 -41 -29 -28 -7 0
-5 -37 -28 -27 -41 -8 0
-5 -37 -28 -29 -41 -6 0
-5 -37 -40 -27 -29 -8 0
-5 -37 -43 -29 -27 -6 0
-5 -38 -29 -27 -40 -7 0
-5 -38 -29 -28 -40 -6 0
-5 -38 -41 -27 -28 -7 0
-5 -38 -43 -28 -27 -6 0
-6 -27 -26 -37 -43 -8 0
-6 -27 -26 -38 -43 -7 0
-6 -27 -28 -37 -38 -8 0
-6 -27 -29 -38 -37 -7 0
-6 -36 -26 -28 -43 -8 0
-6 -36 -26 -29 -43 -7 0
-6 -36 -37 -28 -29 -8 0
-6 -36 -38 -29 -28 -7 0
-6 -40 -28 -26 -38 -8 0
-6 -40 -37 -26 -29 -8 0
-6 -41 -29 -26 -37 -7 0
-6 -41 -38 -26 -28 -7 0
-7 -28 -26 -36 -41 -8 0
-7 -28 -27 -36 -38 -8 0
-7 -37 -26 -27 -41 -8 0
-7 -37 -36 -27 -29 -8 0
-7 -40 -27 -26 -38 -8 0
-7 -40 -36 -26 -29 -8 0
-3 -26 -36 -40 -44 -9 0
-3 -26 -36 -42 -44 -7 0
-3 -26 -37 -40 -42 -9 0
-3 -26 -37 -44 -42 -6 0
-3 -26 -39 -42 -40 -7 0
-3 -26 -39 -44 -40 -6 0
-3 -27 -36 -37 -44 -9 0
-3 -27 -36 -39 -44 -7 0
-3 -27 -40 -37 -39 -9 0
-3 -27 -40 -44 -39 -5 0
-3 -27 -42 -39 -37 -7 0
-3 -27 -42 -44 -37 -5 0
-3 -28 -37 -36 -42 -9 0
-3 -28 -37 -39 -42 -6 0
-3 -28 -40 -36 -39 -9 0
-3 -28 -40 -42 -39 -5 0
-3 -28 -44 -39 -36 -6 0
-3 -28 -44 -42 -36 -5 0
-3 -30 -39 -36 -40 -7 0
-3 -30 -39 -37 -40 -6 0
-3 -30 -42 -36 -37 -7 0
-3 -30 -42 -40 -37 -5 0
-3 -30 -44 -37 -36 -6 0
-3 -30 -44 -40 -36 -5 0
-5 -26 -27 -40 -44 -9 0
-5 -26 -27 -42 -44 -7 0
-5 -26 -28 -40 -42 -9 0
-5 -26 -28 -44 -42 -6 0
-5 -26 -30 -42 -40 -7 0
-5 -26 -30 -44 -40 -6 0
-5 -36 -27 -28 -44 -9 0
-5 -36 -27 -30 -44 -7 0
-5 -36 -40 -28 -30 -9 0
-5 -36 -42 -30 -28 -7 0
-5 -37 -28 -27 -42 -9 0
-5 -37 -28 -30 -42 -6 0
-5 -37 -40 -27 -30 -9 0
-5 -37 -44 -30 -27 -6 0
-5 -39 -30 -27 -40 -7 0
-5 -39 -30 -28 -40 -6 0
-5 -39 -42 -27 -28 -7 0
-5 -39 -44 -28 -27 -6 0
-6 -27 -26 -37 -44 -9 0
-6 -27 -26 -39 -44 -7 0
-6 -27 -28 -37 -39 -9 0
-6 -27 -30 -39 -37 -7 0
-6 -36 -26 -28 -44 -9 0
-6 -36 -26 -30 -44 -7 0
-6 -36 -37 -28 -30 -9 0
-6 -36 -39 -30 -28 -7 0
-6 -40 -28 -26 -39 -9 0
-6 -40 -37 -26 -30 -9 0
-6 -42 -30 -26 -37 -7 0
-6 -42 -39 -26 -28 -7 0
-7 -28 -26 -36 -42 -9 0
-7 -28 -27 -36 -39 -9 0
-7 -37 -26 -27 -42 -9 0
-7 -37 -36 -27 -30 -9 0
-7 -40 -27 -26 -39 -9 0
-7 -40 -36 -26 -30 -9 0
-3 -26 -36 -41 -45 -9 0
-3 -26 -36 -42 -45 -8 0
-3 -26 -38 -41 -42 -9 0
-3 -26 -38 -45 -42 -6 0
-3 -26 -39 -42 -41 -8 0
-3 -26 -39 -45 -41 -6 0
-3 -27 -36 -38 -45 -9 0
-3 -27 -36 -39 -45 -8 0
-3 -27 -41 -38 -39 -9 0
-3 -27 -41 -45 -39 -5 0
-3 -27 -42 -39 -38 -8 0
-3 -27 -42 -45 -38 -5 0
-3 -29 -38 -36 -42 -9 0
-3 -29 -38 -39 -42 -6 0
-3 -29 -41 -36 -39 -9 0
-3 -29 -41 -42 -39 -5 0
-3 -29 -45 -39 -36 -6 0
-3 -29 -45 -42 -36 -5 0
-3 -30 -39 -36 -41 -8 0
-3 -30 -39 -38 -41 -6 0
-3 -30 -42 -36 -38 -8 0
-3 -30 -42 -41 -38 -5 0
-3 -30 -45 -38 -36 -6 0
-3 -30 -45 -41 -36 -5 0
-5 -26 -27 -41 -45 -9 0
-5 -26 -27 -42 -45 -8 0
-5 -26 -29 -41 -42 -9 0
-5 -26 -29 -45 -42 -6 0
-5 -26 -30 -42 -41 -8 0
-5 -26 -30 -45 -41 -6 0
-5 -36 -27 -29 -45 -9 0
-5 -36 -27 -30 -45 -8 0
-5 -36 -41 -29 -30 -9 0
-5 -36 -42 -30 -29 -8 0
-5 -38 -29 -27 -42 -9 0
-5 -38 -29 -30 -42 -6 0
-5 -38 -41 -27 -30 -9 0
-5 -38 -45 -30 -27 -6 0
-5 -39 -30 -27 -41 -8 0
-5 -39 -30 -29 -41 -6 0
-5 -39 -42 -27 -29 -8 0
-5 -39 -45 -29 -27 -6 0
-6 -27 -26 -38 -45 -9 0
-6 -27 -26 -39 -45 -8 0
-6 -27 -29 -38 -39 -9 0
-6 -27 -30 -39 -38 -8 0
-6 -36 -26 -29 -45 -9 0
-6 -36 -26 -30 -45 -8 0
-6 -36 -38 -29 -30 -9 0
-6 -36 -39 -30 -29 -8 0
-6 -41 -29 -26 -39 -9 0
-6 -41 -38 -26 -30 -9 0
-6 -42 -30 -26 -38 -8 0
-6 -42 -39 -26 -29 -8 0
-8 -29 -26 -36 -42 -9 0
-8 -29 -27 -36 -39 -9 0
-8 -38 -26 -27 -42 -9 0
-8 -38 -36 -27 -30 -9 0
-8 -41 -27 -26 -39 -9 0
-8 -41 -36 -26 -30 -9 0
-3 -26 -37 -43 -45 -9 0
-3 -26 -37 -44 -45 -8 0
-3 -26 -38 -43 -44 -9 0
-3 -26 -38 -45 -44 -7 0
-3 -26 -39 -44 -43 -8 0
-3 -26 -39 -45 -43 -7 0
-3 -28 -37 -38 -45 -9 0
-3 -28 -37 -39 -45 -8 0
-3 -28 -43 -38 -39 -9 0
-3 -28 -43 -45 -39 -5 0
-3 -28 -44 -39 -38 -8 0
-3 -28 -44 -45 -38 -5 0
-3 -29 -38 -37 -44 -9 0
-3 -29 -38 -39 -44 -7 0
-3 -29 -43 -37 -39 -9 0
-3 -29 -43 -44 -39 -5 0
-3 -29 -45 -39 -37 -7 0
-3 -29 -45 -44 -37 -5 0
-3 -30 -39 -37 -43 -8 0
-3 -30 -39 -38 -43 -7 0
-3 -30 -44 -37 -38 -8 0
-3 -30 -44 -43 -38 -5 0
-3 -30 -45 -38 -37 -7 0
-3 -30 -45 -43 -37 -5 0
-5 -26 -28 -43 -45 -9 0
-5 -26 -28 -44 -45 -8 0
-5 -26 -29 -43 -44 -9 0
-5 -26 -29 -45 -44 -7 0
-5 -26 -30 -44 -43 -8 0
-5 -26 -30 -45 -43 -7 0
-5 -37 -28 -29 -45 -9 0
-5 -37 -28 -30 -45 -8 0
-5 -37 -43 -29 -30 -9 0
-5 -37 -44 -30 -29 -8 0
-5 -38 -29 -28 -44 -9 0
-5 -38 -29 -30 -44 -7 0
-5 -38 -43 -28 -30 -9 0
-5 -38 -45 -30 -28 -7 0
-5 -39 -30 -28 -43 -8 0
-5 -39 -30 -29 -43 -7 0
-5 -39 -44 -28 -29 -8 0
-5 -39 -45 -29 -28 -7 0
-7 -28 -26 -38 -45 -9 0
-7 -28 -26 -39 -45 -8 0
-7 -28 -29 -38 -39 -9 0
-7 -28 -30 -39 -38 -8 0
-7 -37 -26 -29 -45 -9 0
-7 -37 -26 -30 -45 -8 0
-7 -37 -38 -29 -30 -9 0
-7 -37 -39 -30 -29 -8 0
-7 -43 -29 -26 -39 -9 0
-7 -43 -38 -26 -30 -9 0
-7 -44 -30 -26 -38 -8 0
-7 -44 -39 -26 -29 -8 0
-8 -29 -26 -37 -44 -9 0
-8 -29 -28 -37 -39 -9 0
-8 -38 -26 -28 -44 -9 0
-8 -38 -37 -28 -30 -9 0
-8 -43 -28 -26 -39 -9 0
-8 -43 -37 -26 -30 -9 0
-3 -27 -40 -43 -45 -9 0
-3 -27 -40 -44 -45 -8 0
-3 -27 -41 -43 -44 -9 0
-3 -27 -41 -45 -44 -7 0
-3 -27 -42 -44 -43 -8 0
-3 -27 -42 -45 -43 -7 0
-3 -28 -40 -41 -45 -9 0
-3 -28 -40 -42 -45 -8 0
-3 -28 -43 -41 -42 -9 0
-3 -28 -43 -45 -42 -6 0
-3 -28 -44 -42 -41 -8 0
-3 -28 -44 -45 -41 -6 0
-3 -29 -41 -40 -44 -9 0
-3 -29 -41 -42 -44 -7 0
-3 -29 -43 -40 -42 -9 0
-3 -29 -43 -44 -42 -6 0
-3 -29 -45 -42 -40 -7 0
-3 -29 -45 -44 -40 -6 0
-3 -30 -42 -40 -43 -8 0
-3 -30 -42 -41 -43 -7 0
-3 -30 -44 -40 -41 -8 0
-3 -30 -44 -43 -41 -6 0
-3 -30 -45 -41 -40 -7 0
-3 -30 -45 -43 -40 -6 0
-6 -27 -28 -43 -45 -9 0
-6 -27 -28 -44 -45 -8 0
-6 -27 -29 -43 -44 -9 0
-6 -27 -29 -45 -44 -7 0
-6 -27 -30 -44 -43 -8 0
-6 -27 -30 -45 -43 -7 0
-6 -40 -28 -29 -45 -9 0
-6 -40 -28 -30 -45 -8 0
-6 -40 -43 -29 -30 -9 0
-6 -40 -44 -30 -29 -8 0
-6 -41 -29 -28 -44 -9 0
-6 -41 -29 -30 -44 -7 0
-6 -41 -43 -28 -30 -9 0
-6 -41 -45 -30 -28 -7 0
-6 -42 -30 -28 -43 -8 0
-6 -42 -30 -29 -43 -7 0
-6 -42 -44 -28 -29 -8 0
-6 -42 -45 -29 -28 -7 0
-7 -28 -27 -41 -45 -9 0
-7 -28 -27 -42 -45 -8 0
-7 -28 -29 -41 -42 -9 0
-7 -28 -30 -42 -41 -8 0
-7 -40 -27 -29 -45 -9 0
-7 -40 -27 -30 -45 -8 0
-7 -40 -41 -29 -30 -9 0
-7 -40 -42 -30 -29 -8 0
-7 -43 -29 -27 -42 -9 0
-7 -43 -41 -27 -30 -9 0
-7 -44 -30 -27 -41 -8 0
-7 -44 -42 -27 -29 -8 0
-8 -29 -27 -40 -44 -9 0
-8 -29 -28 -40 -42 -9 0
-8 -41 -27 -28 -44 -9 0
-8 -41 -40 -28 -30 -9 0
-8 -43 -28 -27 -42 -9 0
-8 -43 -40 -27 -30 -9 0
-4 -31 -36 -40 -43 -8 0
-4 -31 -36 -41 -43 -7 0
-4 -31 -37 -40 -41 -8 0
-4 -31 -37 -43 -41 -6 0
-4 -31 -38 -41 -40 -7 0
-4 -31 -38 -43 -40 -6 0
-4 -32 -36 -37 -43 -8 0
-4 -32 -36 -38 -43 -7 0
-4 -32 -40 -37 -38 -8 0
-4 -32 -40 -43 -38 -5 0
-4 -32 -41 -38 -37 -7 0
-4 -32 -41 -43 -37 -5 0
-4 -33 -37 -36 -41 -8 0
-4 -33 -37 -38 -41 -6 0
-4 -33 -40 -36 -38 -8 0
-4 -33 -40 -41 -38 -5 0
-4 -33 -43 -38 -36 -6 0
-4 -33 -43 -41 -36 -5 0
-4 -34 -38 -36 -40 -7 0
-4 -34 -38 -37 -40 -6 0
-4 -34 -41 -36 -37 -7 0
-4 -34 -41 -40 -37 -5 0
-4 -34 -43 -37 -36 -6 0
-4 -34 -43 -40 -36 -5 0
-5 -31 -32 -40 -43 -8 0
-5 -31 -32 -41 -43 -7 0
-5 -31 -33 -40 -41 -8 0
-5 -31 -33 -43 -41 -6 0
-5 -31 -34 -41 -40 -7 0
-5 -31 -34 -43 -40 -6 0
-5 -36 -32 -33 -43 -8 0
-5 -36 -32 -34 -43 -7 0
-5 -36 -40 -33 -34 -8 0
-5 -36 -41 -34 -33 -7 0
-5 -37 -33 -32 -41 -8 0
-5 -37 -33 -34 -41 -6 0
-5 -37 -40 -32 -34 -8 0
-5 -37 -43 -34 -32 -6 0
-5 -38 -34 -32 -40 -7 0
-5 -38 -34 -33 -40 -6 0
-5 -38 -41 -32 -33 -7 0
-5 -38 -43 -33 -32 -6 0
-6 -32 -31 -37 -43 -8 0
-6 -32 -31 -38 -43 -7 0
-6 -32 -33 -37 -38 -8 0
-6 -32 -34 -38 -37 -7 0
-6 -36 -31 -33 -43 -8 0
-6 -36 -31 -34 -43 -7 0
-6 -36 -37 -33 -34 -8 0
-6 -36 -38 -34 -33 -7 0
-6 -40 -33 -31 -38 -8 0
-6 -40 -37 -31 -34 -8 0
-6 -41 -34 -31 -37 -7 0
-6 -41 -38 -31 -33 -7 0
-7 -33 -31 -36 -41 -8 0
-7 -33 -32 -36 -38 -8 0
-7 -37 -31 -32 -41 -8 0
-7 -37 -36 -32 -34 -8 0
-7 -40 -32 -31 -38 -8 0
-7 -40 -36 -31 -34 -8 0
-4 -31 -36 -40 -44 -9 0
-4 -31 -36 -42 -44 -7 0
-4 -31 -37 -40 -42 -9 0
-4 -31 -37 -44 -42 -6 0
-4 -31 -39 -42 -40 -7 0
-4 -31 -39 -44 -40 -6 0
-4 -32 -36 -37 -44 -9 0
-4 -32 -36 -39 -44 -7 0
-4 -32 -40 -37 -39 -9 0
-4 -32 -40 -44 -39 -5 0
-4 -32 -42 -39 -37 -7 0
-4 -32 -42 -44 -37 -5 0
-4 -33 -37 -36 -42 -9 0
-4 -33 -37 -39 -42 -6 0
-4 -33 -40 -36 -39 -9 0
-4 -33 -40 -42 -39 -5 0
-4 -33 -44 -39 -36 -6 0
-4 -33 -44 -42 -36 -5 0
-4 -35 -39 -36 -40 -7 0
-4 -35 -39 -37 -40 -6 0
-4 -35 -42 -36 -37 -7 0
-4 -35 -42 -40 -37 -5 0
-4 -35 -44 -37 -36 -6 0
-4 -35 -44 -40 -36 -5 0
-5 -31 -32 -40 -44 -9 0
-5 -31 -32 -42 -44 -7 0
-5 -31 -33 -40 -42 -9 0
-5 -31 -33 -44 -42 -6 0
-5 -31 -35 -42 -40 -7 0
-5 -31 -35 -44 -40 -6 0
-5 -36 -32 -33 -44 -9 0
-5 -36 -32 -35 -44 -7 0
-5 -36 -40 -33 -35 -9 0
-5 -36 -42 -35 -33 -7 0
-5 -37 -33 -32 -42 -9 0
-5 -37 -33 -35 -42 -6 0
-5 -37 -40 -32 -35 -9 0
-5 -37 -44 -35 -32 -6 0
-5 -39 -35 -32 -40 -7 0
-5 -39 -35 -33 -40 -6 0
-5 -39 -42 -32 -33 -7 0
-5 -39 -44 -33 -32 -6 0
-6 -32 -31 -37 -44 -9 0
-6 -32 -31 -39 -44 -7 0
-6 -32 -33 -37 -39 -9 0
-6 -32 -35 -39 -37 -7 0
-6 -36 -31 -33 -44 -9 0
-6 -36 -31 -35 -44 -7 0
-6 -36 -37 -33 -35 -9 0
-6 -36 -39 -35 -33 -7 0
-6 -40 -33 -31 -39 -9 0
-6 -40 -37 -31 -35 -9 0
-6 -42 -35 -31 -37 -7 0
-6 -42 -39 -31 -33 -7 0
-7 -33 -31 -36 -42 -9 0
-7 -33 -32 -36 -39 -9 0
-7 -37 -31 -32 -42 -9 0
-7 -37 -36 -32 -35 -9 0
-7 -40 -32 -31 -39 -9 0
-7 -40 -36 -31 -35 -9 0
-4 -31 -36 -41 -45 -9 0
-4 -31 -36 -42 -45 -8 0
-4 -31 -38 -41 -42 -9 0
-4 -31 -38 -45 -42 -6 0
-4 -31 -39 -42 -41 -8 0
-4 -31 -39 -45 -41 -6 0
-4 -32 -36 -38 -45 -9 0
-4 -32 -36 -39 -45 -8 0
-4 -32 -41 -38 -39 -9 0
-4 -32 -41 -45 -39 -5 0
-4 -32 -42 -39 -38 -8 0
-4 -32 -42 -45 -38 -5 0
-4 -34 -38 -36 -42 -9 0
-4 -34 -38 -39 -42 -6 0
-4 -34 -41 -36 -39 -9 0
-4 -34 -41 -42 -39 -5 0
-4 -34 -45 -39 -36 -6 0
-4 -34 -45 -42 -36 -5 0
-4 -35 -39 -36 -41 -8 0
-4 -35 -39 -38 -41 -6 0
-4 -35 -42 -36 -38 -8 0
-4 -35 -42 -41 -38 -5 0
-4 -35 -45 -38 -36 -6 0
-4 -35 -45 -41 -36 -5 0
-5 -31 -32 -41 -45 -9 0
-5 -31 -32 -42 -45 -8 0
-5 -31 -34 -41 -42 -9 0
-5 -31 -34 -45 -42 -6 0
-5 -31 -35 -42 -41 -8 0
-5 -31 -35 -45 -41 -6 0
-5 -36 -32 -34 -45 -9 0
-5 -36 -32 -35 -45 -8 0
-5 -36 -41 -34 -35 -9 0
-5 -36 -42 -35 -34 -8 0
-5 -38 -34 -32 -42 -9 0
-5 -38 -34 -35 -42 -6 0
-5 -38 -41 -32 -35 -9 0
-5 -38 -45 -35 -32 -6 0
-5 -39 -35 -32 -41 -8 0
-5 -39 -35 -34 -41 -6 0
-5 -39 -42 -32 -34 -8 0
-5 -39 -45 -34 -32 -6 0
-6 -32 -31 -38 -45 -9 0
-6 -32 -31 -39 -45 -8 0
-6 -32 -34 -38 -39 -9 0
-6 -32 -35 -39 -38 -8 0
-6 -36 -31 -34 -45 -9 0
-6 -36 -31 -35 -45 -8 0
-6 -36 -38 -34 -35 -9 0
-6 -36 -39 -35 -34 -8 0
-6 -41 -34 -31 -39 -9 0
-6 -41 -38 -31 -35 -9 0
-6 -42 -35 -31 -38 -8 0
-6 -42 -39 -31 -34 -8 0
-8 -34 -31 -36 -42 -9 0
-8 -34 -32 -36 -39 -9 0
-8 -38 -31 -32 -42 -9 0
-8 -38 -36 -32 -35 -9 0
-8 -41 -32 -31 -39 -9 0
-8 -41 -36 -31 -35 -9 0
-4 -31 -37 -43 -45 -9 0
-4 -31 -37 -44 -45 -8 0
-4 -31 -38 -43 -44 -9 0
-4 -31 -38 -45 -44 -7 0
-4 -31 -39 -44 -43 -8 0
-4 -31 -39 -45 -43 -7 0
-4 -33 -37 -38 -45 -9 0
-4 -33 -37 -39 -45 -8 0
-4 -33 -43 -38 -39 -9 0
-4 -33 -43 -45 -39 -5 0
-4 -33 -44 -39 -38 -8 0
-4 -33 -44 -45 -38 -5 0
-4 -34 -38 -37 -44 -9 0
-4 -34 -38 -39 -44 -7 0
-4 -34 -43 -37 -39 -9 0
-4 -34 -43 -44 -39 -5 0
-4 -34 -45 -39 -37 -7 0
-4 -34 -45 -44 -37 -5 0
-4 -35 -39 -37 -43 -8 0
-4 -35 -39 -38 -43 -7 0
-4 -35 -44 -37 -38 -8 0
-4 -35 -44 -43 -38 -5 0
-4 -35 -45 -38 -37 -7 0
-4 -35 -45 -43 -37 -5 0
-5 -31 -33 -43 -45 -9 0
-5 -31 -33 -44 -45 -8 0
-5 -31 -34 -43 -44 -9 0
-5 -31 -34 -45 -44 -7 0
-5 -31 -35 -44 -43 -8 0
-5 -31 -35 -45 -43 -7 0
-5 -37 -33 -34 -45 -9 0
-5 -37 -33 -35 -45 -8 0
-5 -37 -43 -34 -35 -9 0
-5 -37 -44 -35 -34 -8 0
-5 -38 -34 -33 -44 -9 0
-5 -38 -34 -35 -44 -7 0
-5 -38 -43 -33 -35 -9 0
-5 -38 -45 -35 -33 -7 0
-5 -39 -35 -33 -43 -8 0
-5 -39 -35 -34 -43 -7 0
-5 -39 -44 -33 -34 -8 0
-5 -39 -45 -34 -33 -7 0
-7 -33 -31 -38 -45 -9 0
-7 -33 -31 -39 -45 -8 0
-7 -33 -34 -38 -39 -9 0
-7 -33 -35 -39 -38 -8 0
-7 -37 -31 -34 -45 -9 0
-7 -37 -31 -35 -45 -8 0
-7 -37 -38 -34 -35 -9 0
-7 -37 -39 -35 -34 -8 0
-7 -43 -34 -31 -39 -9 0
-7 -43 -38 -31 -35 -9 0
-7 -44 -35 -31 -38 -8 0
-7 -44 -39 -31 -34 -8 0
-8 -34 -31 -37 -44 -9 0
-8 -34 -33 -37 -39 -9 0
-8 -38 -31 -33 -44 -9 0
-8 -38 -37 -33 -35 -9 0
-8 -43 -33 -31 -39 -9 0
-8 -43 -37 -31 -35 -9 0
-4 -32 -40 -43 -45 -9 0
-4 -32 -40 -44 -45 -8 0
-4 -32 -41 -43 -44 -9 0
-4 -32 -41 -45 -44 -7 0
-4 -32 -42 -44 -43 -8 0
-4 -32 -42 -45 -43 -7 0
-4 -33 -40 -41 -45 -9 0
-4 -33 -40 -42 -45 -8 0
-4 -33 -43 -41 -42 -9 0
-4 -33 -43 -45 -42 -6 0
-4 -33 -44 -42 -41 -8 0
-4 -33 -44 -45 -41 -6 0
-4 -34 -41 -40 -44 -9 0
-4 -34 -41 -42 -44 -7 0
-4 -34 -43 -40 -42 -9 0
-4 -34 -43 -44 -42 -6 0
-4 -34 -45 -42 -40 -7 0
-4 -34 -45 -44 -40 -6 0
-4 -35 -42 -40 -43 -8 0
-4 -35 -42 -41 -43 -7 0
-4 -35 -44 -40 -41 -8 0
-4 -35 -44 -43 -41 -6 0
-4 -35 -45 -41 -40 -7 0
-4 -35 -45 -43 -40 -6 0
-6 -32 -33 -43 -45 -9 0
-6 -32 -33 -44 -45 -8 0
-6 -32 -34 -43 -44 -9 0
-6 -32 -34 -45 -44 -7 0
-6 -32 -35 -44 -43 -8 0
-6 -32 -35 -45 -43 -7 0
-6 -40 -33 -34 -45 -9 0
-6 -40 -33 -35 -45 -8 0
-6 -40 -43 -34 -35 -9 0
-6 -40 -44 -35 -34 -8 0
-6 -41 -34 -33 -44 -9 0
-6 -41 -34 -35 -44 -7 0
-6 -41 -43 -33 -35 -9 0
-6 -41 -45 -35 -33 -7 0
-6 -42 -35 -33 -43 -8 0
-6 -42 -35 -34 -43 -7 0
-6 -42 -44 -33 -34 -8 0
-6 -42 -45 -34 -33 -7 0
-7 -33 -32 -41 -45 -9 0
-7 -33 -32 -42 -45 -8 0
-7 -33 -34 -41 -42 -9 0
-7 -33 -35 -42 -41 -8 0
-7 -40 -32 -34 -45 -9 0
-7 -40 -32 -35 -45 -8 0
-7 -40 -41 -34 -35 -9 0
-7 -40 -42 -35 -34 -8 0
-7 -43 -34 -32 -42 -9 0
-7 -43 -41 -32 -35 -9 0
-7 -44 -35 -32 -41 -8 0
-7 -44 -42 -32 -34 -8 0
-8 -34 -32 -40 -44 -9 0
-8 -34 -33 -40 -42 -9 0
-8 -41 -32 -33 -44 -9 0
-8 -41 -40 -33 -35 -9 0
-8 -43 -33 -32 -42 -9 0
-8 -43 -40 -32 -35 -9 0
-5 -36 -40 -43 -45 -9 0
-5 -36 -40 -44 -45 -8 0
-5 -36 -41 -43 -44 -9 0
-5 -36 -41 -45 -44 -7 0
-5 -36 -42 -44 -43 -8 0
-5 -36 -42 -45 -43 -7 0
-5 -37 -40 -41 -45 -9 0
-5 -37 -40 -42 -45 -8 0
-5 -37 -43 -41 -42 -9 0
-5 -37 -43 -45 -42 -6 0
-5 -37 -44 -42 -41 -8 0
-5 -37 -44 -45 -41 -6 0
-5 -38 -41 -40 -44 -9 0
-5 -38 -41 -42 -44 -7 0
-5 -38 -43 -40 -42 -9 0
-5 -38 -43 -44 -42 -6 0
-5 -38 -45 -42 -40 -7 0
-5 -38 -45 -44 -40 -6 0
-5 -39 -42 -40 -43 -8 0
-5 -39 -42 -41 -43 -7 0
-5 -39 -44 -40 -41 -8 0
-5 -39 -44 -43 -41 -6 0
-5 -39 -45 -41 -40 -7 0
-5 -39 -45 -43 -40 -6 0
-6 -36 -37 -43 -45 -9 0
-6 -36 -37 -44 -45 -8 0
-6 -36 -38 -43 -44 -9 0
-6 -36 -38 -45 -44 -7 0
-6 -36 -39 -44 -43 -8 0
-6 -36 -39 -45 -43 -7 0
-6 -40 -37 -38 -45 -9 0
-6 -40 -37 -39 -45 -8 0
-6 -40 -43 -38 -39 -9 0
-6 -40 -44 -39 -38 -8 0
-6 -41 -38 -37 -44 -9 0
-6 -41 -38 -39 -44 -7 0
-6 -41 -43 -37 -39 -9 0
-6 -41 -45 -39 -37 -7 0
-6 -42 -39 -37 -43 -8 0
-6 -42 -39 -38 -43 -7 0
-6 -42 -44 -37 -38 -8 0
-6 -42 -45 -38 -37 -7 0
-7 -37 -36 -41 -45 -9 0
-7 -37 -36 -42 -45 -8 0
-7 -37 -38 -41 -42 -9 0
-7 -37 -39 -42 -41 -8 0
-7 -40 -36 -38 -45 -9 0
-7 -40 -36 -39 -45 -8 0
-7 -40 -41 -38 -39 -9 0
-7 -40 -42 -39 -38 -8 0
-7 -43 -38 -36 -42 -9 0
-7 -43 -41 -36 -39 -9 0
-7 -44 -39 -36 -41 -8 0
-7 -44 -42 -36 -38 -8 0
-8 -38 -36 -40 -44 -9 0
-8 -38 -37 -40 -42 -9 0
-8 -41 -36 -37 -44 -9 0
-8 -41 -40 -37 -39 -9 0
-8 -43 -37 -36 -42 -9 0
-8 -43 -40 -36 -39 -9 0
-10 -18 -25 -31 -36 -14 0
-10 -18 -25 -32 -36 -13 0
-10 -18 -26 -31 -32 -14 0
-10 -18 -26 -36 -32 -12 0
-10 -18 -27 -32 -31 -13 0
-10 -18 -27 -36 -31 -12 0
-10 -19 -25 -26 -36 -14 0
-10 -19 -25 -27 -36 -13 0
-10 -19 -31 -26 -27 -14 0
-10 -19 -31 -36 -27 -11 0
-10 -19 -32 -27 -26 -13 0
-10 -19 -32 -36 -26 -11 0
-10 -20 -26 -25 -32 -14 0
-10 -20 -26 -27 -32 -12 0
-10 -20 -31 -25 -27 -14 0
-10 -20 -31 -32 -27 -11 0
-10 -20 -36 -27 -25 -12 0
-10 -20 -36 -32 -25 -11 0
-10 -21 -27 -25 -31 -13 0
-10 -21 -27 -26 -31 -12 0
-10 -21 -32 -25 -26 -13 0
-10 -21 -32 -31 -26 -11 0
-10 -21 -36 -26 -25 -12 0
-10 -21 -36 -31 -25 -11 0
-11 -18 -19 -31 -36 -14 0
-11 -18 -19 -32 -36 -13 0
-11 -18 -20 -31 -32 -14 0
-11 -18 -20 -36 -32 -12 0
-11 -18 -21 -32 -31 -13 0
-11 -18 -21 -36 -31 -12 0
-11 -25 -19 -20 -36 -14 0
-11 -25 -19 -21 -36 -13 0
-11 -25 -31 -20 -21 -14 0
-11 -25 -32 -21 -20 -13 0
-11 -26 -20 -19 -32 -14 0
-11 -26 -20 -21 -32 -12 0
-11 -26 -31 -19 -21 -14 0
-11 -26 -36 -21 -19 -12 0
-11 -27 -21 -19 -31 -13 0
-11 -27 -21 -20 -31 -12 0
-11 -27 -32 -19 -20 -13 0
-11 -27 -36 -20 -19 -12 0
-12 -19 -18 -26 -36 -14 0
-12 -19 -18 -27 -36 -13 0
-12 -19 -20 -26 -27 -14 0
-12 -19 -21 -27 -26 -13 0
-12 -25 -18 -20 -36 -14 0
-12 -25 -18 -21 -36 -13 0
-12 -25 -26 -20 -21 -14 0
-12 -25 -27 -21 -20 -13 0
-12 -31 -20 -18 -27 -14 0
-12 -31 -26 -18 -21 -14 0
-12 -32 -21 -18 -26 -13 0
-12 -32 -27 -18 -20 -13 0
-13 -20 -18 -25 -32 -14 0
-13 -20 -19 -25 -27 -14 0
-13 -26 -18 -19 -32 -14 0
-13 -26 -25 -19 -21 -14 0
-13 -31 -19 -18 -27 -14 0
-13 -31 -25 -18 -21 -14 0
-10 -18 -25 -31 -37 -15 0
-10 -18 -25 -33 -37 -13 0
-10 -18 -26 -31 -33 -15 0
-10 -18 -26 -37 -33 -12 0
-10 -18 -28 -33 -31 -13 0
-10 -18 -28 -37 -31 -12 0
-10 -19 -25 -26 -37 -15 0
-10 -19 -25 -28 -37 -13 0
-10 -19 -31 -26 -28 -15 0
-10 -19 -31 -37 -28 -11 0
-10 -19 -33 -28 -26 -13 0
-10 -19 -33 -37 -26 -11 0
-10 -20 -26 -25 -33 -15 0
-10 -20 -26 -28 -33 -12 0
-10 -20 -31 -25 -28 -15 0
-10 -20 -31 -33 -28 -11 0
-10 -20 -37 -28 -25 -12 0
-10 -20 -37 -33 -25 -11 0
-10 -22 -28 -25 -31 -13 0
-10 -22 -28 -26 -31 -12 0
-10 -22 -33 -25 -26 -13 0
-10 -22 -33 -31 -26 -11 0
-10 -22 -37 -26 -25 -12 0
-10 -22 -37 -31 -25 -11 0
-11 -18 -19 -31 -37 -15 0
-11 -18 -19 -33 -37 -13 0
-11 -18 -20 -31 -33 -15 0
-11 -18 -20 -37 -33 -12 0
-11 -18 -22 -33 -31 -13 0
-11 -18 -22 -37 -31 -12 0
-11 -25 -19 -20 -37 -15 0
-11 -25 -19 -22 -37 -13 0
-11 -25 -31 -20 -22 -15 0
-11 -25 -33 -22 -20 -13 0
-11 -26 -20 -19 -33 -15 0
-11 -26 -20 -22 -33 -12 0
-11 -26 -31 -19 -22 -15 0
-11 -26 -37 -22 -19 -12 0
-11 -28 -22 -19 -31 -13 0
-11 -28 -22 -20 -31 -12 0
-11 -28 -33 -19 -20 -13 0
-11 -28 -37 -20 -19 -12 0
-12 -19 -18 -26 -37 -15 0
-12 -19 -18 -28 -37 -13 0
-12 -19 -20 -26 -28 -15 0
-12 -19 -22 -28 -26 -13 0
-12 -25 -18 -20 -37 -15 0
-12 -25 -18 -22 -37 -13 0
-12 -25 -26 -20 -22 -15 0
-12 -25 -28 -22 -20 -13 0
-12 -31 -20 -18 -28 -15 0
-12 -31 -26 -18 -22 -15 0
-12 -33 -22 -18 -26 -13 0
-12 -33 -28 -18 -20 -13 0
-13 -20 -18 -25 -33 -15 0
-13 -20 -19 -25 -28 -15 0
-13 -26 -18 -19 -33 -15 0
-13 -26 -25 -19 -22 -15 0
-13 -31 -19 -18 -28 -15 0
-13 -31 -25 -18 -22 -15 0
-10 -18 -25 -31 -38 -16 0
-10 -18 -25 -34 -38 -13 0
-10 -18 -26 -31 -34 -16 0
-10 -18 -26 -38 -34 -12 0
-10 -18 -29 -34 -31 -13 0
-10 -18 -29 -38 -31 -12 0
-10 -19 -25 -26 -38 -16 0
-10 -19 -25 -29 -38 -13 0
-10 -19 -31 -26 -29 -16 0
-10 -19 -31 -38 -29 -11 0
-10 -19 -34 -29 -26 -13 0
-10 -19 -34 -38 -26 -11 0
-10 -20 -26 -25 -34 -16 0
-10 -20 -26 -29 -34 -12 0
-10 -20 -31 -25 -29 -16 0
-10 -20 -31 -34 -29 -11 0
-10 -20 -38 -29 -25 -12 0
-10 -20 -38 -34 -25 -11 0
-10 -23 -29 -25 -31 -13 0
-10 -23 -29 -26 -31 -12 0
-10 -23 -34 -25 -26 -13 0
-10 -23 -34 -31 -26 -11 0
-10 -23 -38 -26 -25 -12 0
-10 -23 -38 -31 -25 -11 0
-11 -18 -19 -31 -38 -16 0
-11 -18 -19 -34 -38 -13 0
-11 -18 -20 -31 -34 -16 0
-11 -18 -20 -38 -34 -12 0
-11 -18 -23 -34 -31 -13 0
-11 -18 -23 -38 -31 -12 0
-11 -25 -19 -20 -38 -16 0
-11 -25 -19 -23 -38 -13 0
-11 -25 -31 -20 -23 -16 0
-11 -25 -34 -23 -20 -13 0
-11 -26 -20 -19 -34 -16 0
-11 -26 -20 -23 -34 -12 0
-11 -26 -31 -19 -23 -16 0
-11 -26 -38 -23 -19 -12 0
-11 -29 -23 -19 -31 -13 0
-11 -29 -23 -20 -31 -12 0
-11 -29 -34 -19 -20 -13 0
-11 -29 -38 -20 -19 -12 0
-12 -19 -18 -26 -38 -16 0
-12 -19 -18 -29 -38 -13 0
-12 -19 -20 -26 -29 -16 0
-12 -19 -23 -29 -26 -13 0
-12 -25 -18 -20 -38 -16 0
-12 -25 -18 -23 -38 -13 0
-12 -25 -26 -20 -23 -16 0
-12 -25 -29 -23 -20 -13 0
-12 -31 -20 -18 -29 -16 0
-12 -31 -26 -18 -23 -16 0
-12 -34 -23 -18 -26 -13 0
-12 -34 -29 -18 -20 -13 0
-13 -20 -18 -25 -34 -16 0
-13 -20 -19 -25 -29 -16 0
-13 -26 -18 -19 -34 -16 0
-13 -26 -25 -19 -23 -16 0
-13 -31 -19 -18 -29 -16 0
-13 -31 -25 -18 -23 -16 0
-10 -18 -25 -31 -39 -17 0
-10 -18 -25 -35 -39 -13 0
-10 -18 -26 -31 -35 -17 0
-10 -18 -26 -39 -35 -12 0
-10 -18 -30 -35 -31 -13 0
-10 -18 -30 -39 -31 -12 0
-10 -19 -25 -26 -39 -17 0
-10 -19 -25 -30 -39 -13 0
-10 -19 -31 -26 -30 -17 0
-10 -19 -31 -39 -30 -11 0
-10 -19 -35 -30 -26 -13 0
-10 -19 -35 -39 -26 -11 0
-10 -20 -26 -25 -35 -17 0
-10 -20 -26 -30 -35 -12 0
-10 -20 -31 -25 -30 -17 0
-10 -20 -31 -35 -30 -11 0
-10 -20 -39 -30 -25 -12 0
-10 -20 -39 -35 -25 -11 0
-10 -24 -30 -25 -31 -13 0
-10 -24 -30 -26 -31 -12 0
-10 -24 -35 -25 -26 -13 0
-10 -24 -35 -31 -26 -11 0
-10 -24 -39 -26 -25 -12 0
-10 -24 -39 -31 -25 -11 0
-11 -18 -19 -31 -39 -17 0
-11 -18 -19 -35 -39 -13 0
-11 -18 -20 -31 -35 -17 0
-11 -18 -20 -39 -35 -12 0
-11 -18 -24 -35 -31 -13 0
-11 -18 -24 -39 -31 -12 0
-11 -25 -19 -20 -39 -17 0
-11 -25 -19 -24 -39 -13 0
-11 -25 -31 -20 -24 -17 0
-11 -25 -35 -24 -20 -13 0
-11 -26 -20 -19 -35 -17 0
-11 -26 -20 -24 -35 -12 0
-11 -26 -31 -19 -24 -17 0
-11 -26 -39 -24 -19 -12 0
-11 -30 -24 -19 -31 -13 0
-11 -30 -24 -20 -31 -12 0
-11 -30 -35 -19 -20 -13 0
-11 -30 -39 -20 -19 -12 0
-12 -19 -18 -26 -39 -17 0
-12 -19 -18 -30 -39 -13 0
-12 -19 -20 -26 -30 -17 0
-12 -19 -24 -30 -26 -13 0
-12 -25 -18 -20 -39 -17 0
-12 -25 -18 -24 -39 -13 0
-12 -25 -26 -20 -24 -17 0
-12 -25 -30 -24 -20 -13 0
-12 -31 -20 -18 -30 -17 0
-12 -31 -26 -18 -24 -17 0
-12 -35 -24 -18 -26 -13 0
-12 -35 -30 -18 -20 -13 0
-13 -20 -18 -25 -35 -17 0
-13 -20 -19 -25 -30 -17 0
-13 -26 -18 -19 -35 -17 0
-13 -26 -25 -19 -24 -17 0
-13 -31 -19 -18 -30 -17 0
-13 -31 -25 -18 -24 -17 0
-10 -18 -25 -32 -40 -15 0
-10 -18 -25 -33 -40 -14 0
-10 -18 -27 -32 -33 -15 0
-10 -18 -27 -40 -33 -12 0
-10 -18 -28 -33 -32 -14 0
-10 -18 -28 -40 -32 -12 0
-10 -19 -25 -27 -40 -15 0
-10 -19 -25 -28 -40 -14 0
-10 -19 -32 -27 -28 -15 0
-10 -19 -32 -40 -28 -11 0
-10 -19 -33 -28 -27 -14 0
-10 -19 -33 -40 -27 -11 0
-10 -21 -27 -25 -33 -15 0
-10 -21 -27 -28 -33 -12 0
-10 -21 -32 -25 -28 -15 0
-10 -21 -32 -33 -28 -11 0
-10 -21 -40 -28 -25 -12 0
-10 -21 -40 -33 -25 -11 0
-10 -22 -28 -25 -32 -14 0
-10 -22 -28 -27 -32 -12 0
-10 -22 -33 -25 -27 -14 0
-10 -22 -33 -32 -27 -11 0
-10 -22 -40 -27 -25 -12 0
-10 -22 -40 -32 -25 -11 0
-11 -18 -19 -32 -40 -15 0
-11 -18 -19 -33 -40 -14 0
-11 -18 -21 -32 -33 -15 0
-11 -18 -21 -40 -33 -12 0
-11 -18 -22 -33 -32 -14 0
-11 -18 -22 -40 -32 -12 0
-11 -25 -19 -21 -40 -15 0
-11 -25 -19 -22 -40 -14 0
-11 -25 -32 -21 -22 -15 0
-11 -25 -33 -22 -21 -14 0
-11 -27 -21 -19 -33 -15 0
-11 -27 -21 -22 -33 -12 0
-11 -27 -32 -19 -22 -15 0
-11 -27 -40 -22 -19 -12 0
-11 -28 -22 -19 -32 -14 0
-11 -28 -22 -21 -32 -12 0
-11 -28 -33 -19 -21 -14 0
-11 -28 -40 -21 -19 -12 0
-12 -19 -18 -27 -40 -15 0
-12 -19 -18 -28 -40 -14 0
-12 -19 -21 -27 -28 -15 0
-12 -19 -22 -28 -27 -14 0
-12 -25 -18 -21 -40 -15 0
-12 -25 -18 -22 -40 -14 0
-12 -25 -27 -21 -22 -15 0
-12 -25 -28 -22 -21 -14 0
-12 -32 -21 -18 -28 -15 0
-12 -32 -27 -18 -22 -15 0
-12 -33 -22 -18 -27 -14 0
-12 -33 -28 -18 -21 -14 0
-14 -21 -18 -25 -33 -15 0
-14 -21 -19 -25 -28 -15 0
-14 -27 -18 -19 -33 -15 0
-14 -27 -25 -19 -22 -15 0
-14 -32 -19 -18 -28 -15 0
-14 -32 -25 -18 -22 -15 0
-10 -18 -25 -32 -41 -16 0
-10 -18 -25 -34 -41 -14 0
-10 -18 -27 -32 -34 -16 0
-10 -18 -27 -41 -34 -12 0
-10 -18 -29 -34 -32 -14 0
-10 -18 -29 -41 -32 -12 0
-10 -19 -25 -27 -41 -16 0
-10 -19 -25 -29 -41 -14 0
-10 -19 -32 -27 -29 -16 0
-10 -19 -32 -41 -29 -11 0
-10 -19 -34 -29 -27 -14 0
-10 -19 -34 -41 -27 -11 0
-10 -21 -27 -25 -34 -16 0
-10 -21 -27 -29 -34 -12 0
-10 -21 -32 -25 -29 -16 0
-10 -21 -32 -34 -29 -11 0
-10 -21 -41 -29 -25 -12 0
-10 -21 -41 -34 -25 -11 0
-10 -23 -29 -25 -32 -14 0
-10 -23 -29 -27 -32 -12 0
-10 -23 -34 -25 -27 -14 0
-10 -23 -34 -32 -27 -11 0
-10 -23 -41 -27 -25 -12 0
-10 -23 -41 -32 -25 -11 0
-11 -18 -19 -32 -41 -16 0
-11 -18 -19 -34 -41 -14 0
-11 -18 -21 -32 -34 -16 0
-11 -18 -21 -41 -34 -12 0
-11 -18 -23 -34 -32 -14 0
-11 -18 -23 -41 -32 -12 0
-11 -25 -19 -21 -41 -16 0
-11 -25 -19 -23 -41 -14 0
-11 -25 -32 -21 -23 -16 0
-11 -25 -34 -23 -21 -14 0
-11 -27 -21 -19 -34 -16 0
-11 -27 -21 -23 -34 -12 0
-11 -27 -32 -19 -23 -16 0
-11 -27 -41 -23 -19 -12 0
-11 -29 -23 -19 -32 -14 0
-11 -29 -23 -21 -32 -12 0
-11 -29 -34 -19 -21 -14 0
-11 -29 -41 -21 -19 -12 0
-12 -19 -18 -27 -41 -16 0
-12 -19 -18 -29 -41 -14 0
-12 -19 -21 -27 -29 -16 0
-12 -19 -23 -29 -27 -14 0
-12 -25 -18 -21 -41 -16 0
-12 -25 -18 -23 -41 -14 0
-12 -25 -27 -21 -23 -16 0
-12 -25 -29 -23 -21 -14 0
-12 -32 -21 -18 -29 -16 0
-12 -32 -27 -18 -23 -16 0
-12 -34 -23 -18 -27 -14 0
-12 -34 -29 -18 -21 -14 0
-14 -21 -18 -25 -34 -16 0
-14 -21 -19 -25 -29 -16 0
-14 -27 -18 -19 -34 -16 0
-14 -27 -25 -19 -23 -16 0
-14 -32 -19 -18 -29 -16 0
-14 -32 -25 -18 -23 -16 0
-10 -18 -25 -32 -42 -17 0
-10 -18 -25 -35 -42 -14 0
-10 -18 -27 -32 -35 -17 0
-10 -18 -27 -42 -35 -12 0
-10 -18 -30 -35 -32 -14 0
-10 -18 -30 -42 -32 -12 0
-10 -19 -25 -27 -42 -17 0
-10 -19 -25 -30 -42 -14 0
-10 -19 -32 -27 -30 -17 0
-10 -19 -32 -42 -30 -11 0
-10 -19 -35 -30 -27 -14 0
-10 -19 -35 -42 -27 -11 0
-10 -21 -27 -25 -35 -17 0
-10 -21 -27 -30 -35 -12 0
-10 -21 -32 -25 -30 -17 0
-10 -21 -32 -35 -30 -11 0
-10 -21 -42 -30 -25 -12 0
-10 -21 -42 -35 -25 -11 0
-10 -24 -30 -25 -32 -14 0
-10 -24 -30 -27 -32 -12 0
-10 -24 -35 -25 -27 -14 0
-10 -24 -35 -32 -27 -11 0
-10 -24 -42 -27 -25 -12 0
-10 -24 -42 -32 -25 -11 0
-11 -18 -19 -32 -42 -17 0
-11 -18 -19 -35 -42 -14 0
-11 -18 -21 -32 -35 -17 0
-11 -18 -21 -42 -35 -12 0
-11 -18 -24 -35 -32 -14 0
-11 -18 -24 -42 -32 -12 0
-11 -25 -19 -21 -42 -17 0
-11 -25 -19 -24 -42 -14 0
-11 -25 -32 -21 -24 -17 0
-11 -25 -35 -24 -21 -14 0
-11 -27 -21 -19 -35 -17 0
-11 -27 -21 -24 -35 -12 0
-11 -27 -32 -19 -24 -17 0
-11 -27 -42 -24 -19 -12 0
-11 -30 -24 -19 -32 -14 0
-11 -30 -24 -21 -32 -12 0
-11 -30 -35 -19 -21 -14 0
-11 -30 -42 -21 -19 -12 0
-12 -19 -18 -27 -42 -17 0
-12 -19 -18 -30 -42 -14 0
-12 -19 -21 -27 -30 -17 0
-12 -19 -24 -30 -27 -14 0
-12 -25 -18 -21 -42 -17 0
-12 -25 -18 -24 -42 -14 0
-12 -25 -27 -21 -24 -17 0
-12 -25 -30 -24 -21 -14 0
-12 -32 -21 -18 -30 -17 0
-12 -32 -27 -18 -24 -17 0
-12 -35 -24 -18 -27 -14 0
-12 -35 -30 -18 -21 -14 0
-14 -21 -18 -25 -35 -17 0
-14 -21 -19 -25 -30 -17 0
-14 -27 -18 -19 -35 -17 0
-14 -27 -25 -19 -24 -17 0
-14 -32 -19 -18 -30 -17 0
-14 -32 -25 -18 -24 -17 0
-10 -18 -25 -33 -43 -16 0
-10 -18 -25 -34 -43 -15 0
-10 -18 -28 -33 -34 -16 0
-10 -18 -28 -43 -34 -12 0
-10 -18 -29 -34 -33 -15 0
-10 -18 -29 -43 -33 -12 0
-10 -19 -25 -28 -43 -16 0
-10 -19 -25 -29 -43 -15 0
-10 -19 -33 -28 -29 -16 0
-10 -19 -33 -43 -29 -11 0
-10 -19 -34 -29 -28 -15 0
-10 -19 -34 -43 -28 -11 0
-10 -22 -28 -25 -34 -16 0
-10 -22 -28 -29 -34 -12 0
-10 -22 -33 -25 -29 -16 0
-10 -22 -33 -34 -29 -11 0
-10 -22 -43 -29 -25 -12 0
-10 -22 -43 -34 -25 -11 0
-10 -23 -29 -25 -33 -15 0
-10 -23 -29 -28 -33 -12 0
-10 -23 -34 -25 -28 -15 0
-10 -23 -34 -33 -28 -11 0
-10 -23 -43 -28 -25 -12 0
-10 -23 -43 -33 -25 -11 0
-11 -18 -19 -33 -43 -16 0
-11 -18 -19 -34 -43 -15 0
-11 -18 -22 -33 -34 -16 0
-11 -18 -22 -43 -34 -12 0
-11 -18 -23 -34 -33 -15 0
-11 -18 -23 -43 -33 -12 0
-11 -25 -19 -22 -43 -16 0
-11 -25 -19 -23 -43 -15 0
-11 -25 -33 -22 -23 -16 0
-11 -25 -34 -23 -22 -15 0
-11 -28 -22 -19 -34 -16 0
-11 -28 -22 -23 -34 -12 0
-11 -28 -33 -19 -23 -16 0
-11 -28 -43 -23 -19 -12 0
-11 -29 -23 -19 -33 -15 0
-11 -29 -23 -22 -33 -12 0
-11 -29 -34 -19 -22 -15 0
-11 -29 -43 -22 -19 -12 0
-12 -19 -18 -28 -43 -16 0
-12 -19 -18 -29 -43 -15 0
-12 -19 -22 -28 -29 -16 0
-12 -19 -23 -29 -28 -15 0
-12 -25 -18 -22 -43 -16 0
-12 -25 -18 -23 -43 -15 0
-12 -25 -28 -22 -23 -16 0
-12 -25 -29 -23 -22 -15 0
-12 -33 -22 -18 -29 -16 0
-12 -33 -28 -18 -23 -16 0
-12 -34 -23 -18 -28 -15 0
-12 -34 -29 -18 -22 -15 0
-15 -22 -18 -25 -34 -16 0
-15 -22 -19 -25 -29 -16 0
-15 -28 -18 -19 -34 -16 0
-15 -28 -25 -19 -23 -16 0
-15 -33 -19 -18 -29 -16 0
-15 -33 -25 -18 -23 -16 0
-10 -18 -25 -33 -44 -17 0
-10 -18 -25 -35 -44 -15 0
-10 -18 -28 -33 -35 -17 0
-10 -18 -28 -44 -35 -12 0
-10 -18 -30 -35 -33 -15 0
-10 -18 -30 -44 -33 -12 0
-10 -19 -25 -28 -44 -17 0
-10 -19 -25 -30 -44 -15 0
-10 -19 -33 -28 -30 -17 0
-10 -19 -33 -44 -30 -11 0
-10 -19 -35 -30 -28 -15 0
-10 -19 -35 -44 -28 -11 0
-10 -22 -28 -25 -35 -17 0
-10 -22 -28 -30 -35 -12 0
-10 -22 -33 -25 -30 -17 0
-10 -22 -33 -35 -30 -11 0
-10 -22 -44 -30 -25 -12 0
-10 -22 -44 -35 -25 -11 0
-10 -24 -30 -25 -33 -15 0
-10 -24 -30 -28 -33 -12 0
-10 -24 -35 -25 -28 -15 0
-10 -24 -35 -33 -28 -11 0
-10 -24 -44 -28 -25 -12 0
-10 -24 -44 -33 -25 -11 0
-11 -18 -19 -33 -44 -17 0
-11 -18 -19 -35 -44 -15 0
-11 -18 -22 -33 -35 -17 0
-11 -18 -22 -44 -35 -12 0
-11 -18 -24 -35 -33 -15 0
-11 -18 -24 -44 -33 -12 0
-11 -25 -19 -22 -44 -17 0
-11 -25 -19 -24 -44 -15 0
-11 -25 -33 -22 -24 -17 0
-11 -25 -35 -24 -22 -15 0
-11 -28 -22 -19 -35 -17 0
-11 -28 -22 -24 -35 -12 0
-11 -28 -33 -19 -24 -17 0
-11 -28 -44 -24 -19 -12 0
-11 -30 -24 -19 -33 -15 0
-11 -30 -24 -22 -33 -12 0
-11 -30 -35 -19 -22 -15 0
-11 -30 -44 -22 -19 -12 0
-12 -19 -18 -28 -44 -17 0
-12 -19 -18 -30 -44 -15 0
-12 -19 -22 -28 -30 -17 0
-12 -19 -24 -30 -28 -15 0
-12 -25 -18 -22 -44 -17 0
-12 -25 -18 -24 -44 -15 0
-12 -25 -28 -22 -24 -17 0
-12 -25 -30 -24 -22 -15 0
-12 -33 -22 -18 -30 -17 0
-12 -33 -28 -18 -24 -17 0
-12 -35 -24 -18 -28 -15 0
-12 -35 -30 -18 -22 -15 0
-15 -22 -18 -25 -35 -17 0
-15 -22 -19 -25 -30 -17 0
-15 -28 -18 -19 -35 -17 0
-15 -28 -25 -19 -24 -17 0
-15 -33 -19 -18 -30 -17 0
-15 -33 -25 -18 -24 -17 0
-10 -18 -25 -34 -45 -17 0
-10 -18 -25 -35 -45 -16 0
-10 -18 -29 -34 -35 -17 0
-10 -18 -29 -45 -35 -12 0
-10 -18 -30 -35 -34 -16 0
-10 -18 -30 -45 -34 -12 0
-10 -19 -25 -29 -45 -17 0
-10 -19 -25 -30 -45 -16 0
-10 -19 -34 -29 -30 -17 0
-10 -19 -34 -45 -30 -11 0
-10 -19 -35 -30 -29 -16 0
-10 -19 -35 -45 -29 -11 0
-10 -23 -29 -25 -35 -17 0
-10 -23 -29 -30 -35 -12 0
-10 -23 -34 -25 -30 -17 0
-10 -23 -34 -35 -30 -11 0
-10 -23 -45 -30 -25 -12 0
-10 -23 -45 -35 -25 -11 0
-10 -24 -30 -25 -34 -16 0
-10 -24 -30 -29 -34 -12 0
-10 -24 -35 -25 -29 -16 0
-10 -24 -35 -34 -29 -11 0
-10 -24 -45 -29 -25 -12 0
-10 -24 -45 -34 -25 -11 0
-11 -18 -19 -34 -45 -17 0
-11 -18 -19 -35 -45 -16 0
-11 -18 -23 -34 -35 -17 0
-11 -18 -23 -45 -35 -12 0
-11 -18 -24 -35 -34 -16 0
-11 -18 -24 -45 -34 -12 0
-11 -25 -19 -23 -45 -17 0
-11 -25 -19 -24 -45 -16 0
-11 -25 -34 -23 -24 -17 0
-11 -25 -35 -24 -23 -16 0
-11 -29 -23 -19 -35 -17 0
-11 -29 -23 -24 -35 -12 0
-11 -29 -34 -19 -24 -17 0
-11 -29 -45 -24 -19 -12 0
-11 -30 -24 -19 -34 -16 0
-11 -30 -24 -23 -34 -12 0
-11 -30 -35 -19 -23 -16 0
-11 -30 -45 -23 -19 -12 0
-12 -19 -18 -29 -45 -17 0
-12 -19 -18 -30 -45 -16 0
-12 -19 -23 -29 -30 -17 0
-12 -19 -24 -30 -29 -16 0
-12 -25 -18 -23 -45 -17 0
-12 -25 -18 -24 -45 -16 0
-12 -25 -29 -23 -24 -17 0
-12 -25 -30 -24 -23 -16 0
-12 -34 -23 -18 -30 -17 0
-12 -34 -29 -18 -24 -17 0
-12 -35 -24 -18 -29 -16 0
-12 -35 -30 -18 -23 -16 0
-16 -23 -18 -25 -35 -17 0
-16 -23 -19 -25 -30 -17 0
-16 -29 -18 -19 -35 -17 0
-16 -29 -25 -19 -24 -17 0
-16 -34 -19 -18 -30 -17 0
-16 -34 -25 -18 -24 -17 0
-10 -18 -26 -36 -40 -15 0
-10 -18 -26 -37 -40 -14 0
-10 -18 -27 -36 -37 -15 0
-10 -18 -27 -40 -37 -13 0
-10 -18 -28 -37 -36 -14 0
-10 -18 -28 -40 -36 -13 0
-10 -20 -26 -27 -40 -15 0
-10 -20 -26 -28 -40 -14 0
-10 -20 -36 -27 -28 -15 0
-10 -20 -36 -40 -28 -11 0
-10 -20 -37 -28 -27 -14 0
-10 -20 -37 -40 -27 -11 0
-10 -21 -27 -26 -37 -15 0
-10 -21 -27 -28 -37 -13 0
-10 -21 -36 -26 -28 -15 0
-10 -21 -36 -37 -28 -11 0
-10 -21 -40 -28 -26 -13 0
-10 -21 -40 -37 -26 -11 0
-10 -22 -28 -26 -36 -14 0
-10 -22 -28 -27 -36 -13 0
-10 -22 -37 -26 -27 -14 0
-10 -22 -37 -36 -27 -11 0
-10 -22 -40 -27 -26 -13 0
-10 -22 -40 -36 -26 -11 0
-11 -18 -20 -36 -40 -15 0
-11 -18 -20 -37 -40 -14 0
-11 -18 -21 -36 -37 -15 0
-11 -18 -21 -40 -37 -13 0
-11 -18 -22 -37 -36 -14 0
-11 -18 -22 -40 -36 -13 0
-11 -26 -20 -21 -40 -15 0
-11 -26 -20 -22 -40 -14 0
-11 -26 -36 -21 -22 -15 0
-11 -26 -37 -22 -21 -14 0
-11 -27 -21 -20 -37 -15 0
-11 -27 -21 -22 -37 -13 0
-11 -27 -36 -20 -22 -15 0
-11 -27 -40 -22 -20 -13 0
-11 -28 -22 -20 -36 -14 0
-11 -28 -22 -21 -36 -13 0
-11 -28 -37 -20 -21 -14 0
-11 -28 -40 -21 -20 -13 0
-13 -20 -18 -27 -40 -15 0
-13 -20 -18 -28 -40 -14 0
-13 -20 -21 -27 -28 -15 0
-13 -20 -22 -28 -27 -14 0
-13 -26 -18 -21 -40 -15 0
-13 -26 -18 -22 -40 -14 0
-13 -26 -27 -21 -22 -15 0
-13 -26 -28 -22 -21 -14 0
-13 -36 -21 -18 -28 -15 0
-13 -36 -27 -18 -22 -15 0
-13 -37 -22 -18 -27 -14 0
-13 -37 -28 -18 -21 -14 0
-14 -21 -18 -26 -37 -15 0
-14 -21 -20 -26 -28 -15 0
-14 -27 -18 -20 -37 -15 0
-14 -27 -26 -20 -22 -15 0
-14 -36 -20 -18 -28 -15 0
-14 -36 -26 -18 -22 -15 0
-10 -18 -26 -36 -41 -16 0
-10 -18 -26 -38 -41 -14 0
-10 -18 -27 -36 -38 -16 0
-10 -18 -27 -41 -38 -13 0
-10 -18 -29 -38 -36 -14 0
-10 -18 -29 -41 -36 -13 0
-10 -20 -26 -27 -41 -16 0
-10 -20 -26 -29 -41 -14 0
-10 -20 -36 -27 -29 -16 0
-10 -20 -36 -41 -29 -11 0
-10 -20 -38 -29 -27 -14 0
-10 -20 -38 -41 -27 -11 0
-10 -21 -27 -26 -38 -16 0
-10 -21 -27 -29 -38 -13 0
-10 -21 -36 -26 -29 -16 0
-10 -21 -36 -38 -29 -11 0
-10 -21 -41 -29 -26 -13 0
-10 -21 -41 -38 -26 -11 0
-10 -23 -29 -26 -36 -14 0
-10 -23 -29 -27 -36 -13 0
-10 -23 -38 -26 -27 -14 0
-10 -23 -38 -36 -27 -11 0
-10 -23 -41 -27 -26 -13 0
-10 -23 -41 -36 -26 -11 0
-11 -18 -20 -36 -41 -16 0
-11 -18 -20 -38 -41 -14 0
-11 -18 -21 -36 -38 -16 0
-11 -18 -21 -41 -38 -13 0
-11 -18 -23 -38 -36 -14 0
-11 -18 -23 -41 -36 -13 0
-11 -26 -20 -21 -41 -16 0
-11 -26 -20 -23 -41 -14 0
-11 -26 -36 -21 -23 -16 0
-11 -26 -38 -23 -21 -14 0
-11 -27 -21 -20 -38 -16 0
-11 -27 -21 -23 -38 -13 0
-11 -27 -36 -20 -23 -16 0
-11 -27 -41 -23 -20 -13 0
-11 -29 -23 -20 -36 -14 0
-11 -29 -23 -21 -36 -13 0
-11 -29 -38 -20 -21 -14 0
-11 -29 -41 -21 -20 -13 0
-13 -20 -18 -27 -41 -16 0
-13 -20 -18 -29 -41 -14 0
-13 -20 -21 -27 -29 -16 0
-13 -20 -23 -29 -27 -14 0
-13 -26 -18 -21 -41 -16 0
-13 -26 -18 -23 -41 -14 0
-13 -26 -27 -21 -23 -16 0
-13 -26 -29 -23 -21 -14 0
-13 -36 -21 -18 -29 -16 0
-13 -36 -27 -18 -23 -16 0
-13 -38 -23 -18 -27 -14 0
-13 -38 -29 -18 -21 -14 0
-14 -21 -18 -26 -38 -16 0
-14 -21 -20 -26 -29 -16 0
-14 -27 -18 -20 -38 -16 0
-14 -27 -26 -20 -23 -16 0
-14 -36 -20 -18 -29 -16 0
-14 -36 -26 -18 -23 -16 0
-10 -18 -26 -36 -42 -17 0
-10 -18 -26 -39 -42 -14 0
-10 -18 -27 -36 -39 -17 0
-10 -18 -27 -42 -39 -13 0
-10 -18 -30 -39 -36 -14 0
-10 -18 -30 -42 -36 -13 0
-10 -20 -26 -27 -42 -17 0
-10 -20 -26 -30 -42 -14 0
-10 -20 -36 -27 -30 -17 0
-10 -20 -36 -42 -30 -11 0
-10 -20 -39 -30 -27 -14 0
-10 -20 -39 -42 -27 -11 0
-10 -21 -27 -26 -39 -17 0
-10 -21 -27 -30 -39 -13 0
-10 -21 -36 -26 -30 -17 0
-10 -21 -36 -39 -30 -11 0
-10 -21 -42 -30 -26 -13 0
-10 -21 -42 -39 -26 -11 0
-10 -24 -30 -26 -36 -14 0
-10 -24 -30 -27 -36 -13 0
-10 -24 -39 -26 -27 -14 0
-10 -24 -39 -36 -27 -11 0
-10 -24 -42 -27 -26 -13 0
-10 -24 -42 -36 -26 -11 0
-11 -18 -20 -36 -42 -17 0
-11 -18 -20 -39 -42 -14 0
-11 -18 -21 -36 -39 -17 0
-11 -18 -21 -42 -39 -13 0
-11 -18 -24 -39 -36 -14 0
-11 -18 -24 -42 -36 -13 0
-11 -26 -20 -21 -42 -17 0
-11 -26 -20 -24 -42 -14 0
-11 -26 -36 -21 -24 -17 0
-11 -26 -39 -24 -21 -14 0
-11 -27 -21 -20 -39 -17 0
-11 -27 -21 -24 -39 -13 0
-11 -27 -36 -20 -24 -17 0
-11 -27 -42 -24 -20 -13 0
-11 -30 -24 -20 -36 -14 0
-11 -30 -24 -21 -36 -13 0
-11 -30 -39 -20 -21 -14 0
-11 -30 -42 -21 -20 -13 0
-13 -20 -18 -27 -42 -17 0
-13 -20 -18 -30 -42 -14 0
-13 -20 -21 -27 -30 -17 0
-13 -20 -24 -30 -27 -14 0
-13 -26 -18 -21 -42 -17 0
-13 -26 -18 -24 -42 -14 0
-13 -26 -27 -21 -24 -17 0
-13 -26 -30 -24 -21 -14 0
-13 -36 -21 -18 -30 -17 0
-13 -36 -27 -18 -24 -17 0
-13 -39 -24 -18 -27 -14 0
-13 -39 -30 -18 -21 -14 0
-14 -21 -18 -26 -39 -17 0
-14 -21 -20 -26 -30 -17 0
-14 -27 -18 -20 -39 -17 0
-14 -27 -26 -20 -24 -17 0
-14 -36 -20 -18 -30 -17 0
-14 -36 -26 -18 -24 -17 0
-10 -18 -26 -37 -43 -16 0
-10 -18 -26 -38 -43 -15 0
-10 -18 -28 -37 -38 -16 0
-10 -18 -28 -43 -38 -13 0
-10 -18 -29 -38 -37 -15 0
-10 -18 -29 -43 -37 -13 0
-10 -20 -26 -28 -43 -16 0
-10 -20 -26 -29 -43 -15 0
-10 -20 -37 -28 -29 -16 0
-10 -20 -37 -43 -29 -11 0
-10 -20 -38 -29 -28 -15 0
-10 -20 -38 -43 -28 -11 0
-10 -22 -28 -26 -38 -16 0
-10 -22 -28 -29 -38 -13 0
-10 -22 -37 -26 -29 -16 0
-10 -22 -37 -38 -29 -11 0
-10 -22 -43 -29 -26 -13 0
-10 -22 -43 -38 -26 -11 0
-10 -23 -29 -26 -37 -15 0
-10 -23 -29 -28 -37 -13 0
-10 -23 -38 -26 -28 -15 0
-10 -23 -38 -37 -28 -11 0
-10 -23 -43 -28 -26 -13 0
-10 -23 -43 -37 -26 -11 0
-11 -18 -20 -37 -43 -16 0
-11 -18 -20 -38 -43 -15 0
-11 -18 -22 -37 -38 -16 0
-11 -18 -22 -43 -38 -13 0
-11 -18 -23 -38 -37 -15 0
-11 -18 -23 -43 -37 -13 0
-11 -26 -20 -22 -43 -16 0
-11 -26 -20 -23 -43 -15 0
-11 -26 -37 -22 -23 -16 0
-11 -26 -38 -23 -22 -15 0
-11 -28 -22 -20 -38 -16 0
-11 -28 -22 -23 -38 -13 0
-11 -28 -37 -20 -23 -16 0
-11 -28 -43 -23 -20 -13 0
-11 -29 -23 -20 -37 -15 0
-11 -29 -23 -22 -37 -13 0
-11 -29 -38 -20 -22 -15 0
-11 -29 -43 -22 -20 -13 0
-13 -20 -18 -28 -43 -16 0
-13 -20 -18 -29 -43 -15 0
-13 -20 -22 -28 -29 -16 0
-13 -20 -23 -29 -28 -15 0
-13 -26 -18 -22 -43 -16 0
-13 -26 -18 -23 -43 -15 0
-13 -26 -28 -22 -23 -16 0
-13 -26 -29 -23 -22 -15 0
-13 -37 -22 -18 -29 -16 0
-13 -37 -28 -18 -23 -16 0
-13 -38 -23 -18 -28 -15 0
-13 -38 -29 -18 -22 -15 0
-15 -22 -18 -26 -38 -16 0
-15 -22 -20 -26 -29 -16 0
-15 -28 -18 -20 -38 -16 0
-15 -28 -26 -20 -23 -16 0
-15 -37 -20 -18 -29 -16 0
-15 -37 -26 -18 -23 -16 0
-10 -18 -26 -37 -44 -17 0
-10 -18 -26 -39 -44 -15 0
-10 -18 -28 -37 -39 -17 0
-10 -18 -28 -44 -39 -13 0
-10 -18 -30 -39 -37 -15 0
-10 -18 -30 -44 -37 -13 0
-10 -20 -26 -28 -44 -17 0
-10 -20 -26 -30 -44 -15 0
-10 -20 -37 -28 -30 -17 0
-10 -20 -37 -44 -30 -11 0
-10 -20 -39 -30 -28 -15 0
-10 -20 -39 -44 -28 -11 0
-10 -22 -28 -26 -39 -17 0
-10 -22 -28 -30 -39 -13 0
-10 -22 -37 -26 -30 -17 0
-10 -22 -37 -39 -30 -11 0
-10 -22 -44 -30 -26 -13 0
-10 -22 -44 -39 -26 -11 0
-10 -24 -30 -26 -37 -15 0
-10 -24 -30 -28 -37 -13 0
-10 -24 -39 -26 -28 -15 0
-10 -24 -39 -37 -28 -11 0
-10 -24 -44 -28 -26 -13 0
-10 -24 -44 -37 -26 -11 0
-11 -18 -20 -37 -44 -17 0
-11 -18 -20 -39 -44 -15 0
-11 -18 -22 -37 -39 -17 0
-11 -18 -22 -44 -39 -13 0
-11 -18 -24 -39 -37 -15 0
-11 -18 -24 -44 -37 -13 0
-11 -26 -20 -22 -44 -17 0
-11 -26 -20 -24 -44 -15 0
-11 -26 -37 -22 -24 -17 0
-11 -26 -39 -24 -22 -15 0
-11 -28 -22 -20 -39 -17 0
-11 -28 -22 -24 -39 -13 0
-11 -28 -37 -20 -24 -17 0
-11 -28 -44 -24 -20 -13 0
-11 -30 -24 -20 -37 -15 0
-11 -30 -24 -22 -37 -13 0
-11 -30 -39 -20 -22 -15 0
-11 -30 -44 -22 -20 -13 0
-13 -20 -18 -28 -44 -17 0
-13 -20 -18 -30 -44 -15 0
-13 -20 -22 -28 -30 -17 0
-13 -20 -24 -30 -28 -15 0
-13 -26 -18 -22 -44 -17 0
-13 -26 -18 -24 -44 -15 0
-13 -26 -28 -22 -24 -17 0
-13 -26 -30 -24 -22 -15 0
-13 -37 -22 -18 -30 -17 0
-13 -37 -28 -18 -24 -17 0
-13 -39 -24 -18 -28 -15 0
-13 -39 -30 -18 -22 -15 0
-15 -22 -18 -26 -39 -17 0
-15 -22 -20 -26 -30 -17 0
-15 -28 -18 -20 -39 -17 0
-15 -28 -26 -20 -24 -17 0
-15 -37 -20 -18 -30 -17 0
-15 -37 -26 -18 -24 -17 0
-10 -18 -26 -38 -45 -17 0
-10 -18 -26 -39 -45 -16 0
-10 -18 -29 -38 -39 -17 0
-10 -18 -29 -45 -39 -13 0
-10 -18 -30 -39 -38 -16 0
-10 -18 -30 -45 -38 -13 0
-10 -20 -26 -29 -45 -17 0
-10 -20 -26 -30 -45 -16 0
-10 -20 -38 -29 -30 -17 0
-10 -20 -38 -45 -30 -11 0
-10 -20 -39 -30 -29 -16 0
-10 -20 -39 -45 -29 -11 0
-10 -23 -29 -26 -39 -17 0
-10 -23 -29 -30 -39 -13 0
-10 -23 -38 -26 -30 -17 0
-10 -23 -38 -39 -30 -11 0
-10 -23 -45 -30 -26 -13 0
-10 -23 -45 -39 -26 -11 0
-10 -24 -30 -26 -38 -16 0
-10 -24 -30 -29 -38 -13 0
-10 -24 -39 -26 -29 -16 0
-10 -24 -39 -38 -29 -11 0
-10 -24 -45 -29 -26 -13 0
-10 -24 -45 -38 -26 -11 0
-11 -18 -20 -38 -45 -17 0
-11 -18 -20 -39 -45 -16 0
-11 -18 -23 -38 -39 -17 0
-11 -18 -23 -45 -39 -13 0
-11 -18 -24 -39 -38 -16 0
-11 -18 -24 -45 -38 -13 0
-11 -26 -20 -23 -45 -17 0
-11 -26 -20 -24 -45 -16 0
-11 -26 -38 -23 -24 -17 0
-11 -26 -39 -24 -23 -16 0
-11 -29 -23 -20 -39 -17 0
-11 -29 -23 -24 -39 -13 0
-11 -29 -38 -20 -24 -17 0
-11 -29 -45 -24 -20 -13 0
-11 -30 -24 -20 -38 -16 0
-11 -30 -24 -23 -38 -13 0
-11 -30 -39 -20 -23 -16 0
-11 -30 -45 -23 -20 -13 0
-13 -20 -18 -29 -45 -17 0
-13 -20 -18 -30 -45 -16 0
-13 -20 -23 -29 -30 -17 0
-13 -20 -24 -30 -29 -16 0
-13 -26 -18 -23 -45 -17 0
-13 -26 -18 -24 -45 -16 0
-13 -26 -29 -23 -24 -17 0
-13 -26 -30 -24 -23 -16 0
-13 -38 -23 -18 -30 -17 0
-13 -38 -29 -18 -24 -17 0
-13 -39 -24 -18 -29 -16 0
-13 -39 -30 -18 -23 -16 0
-16 -23 -18 -26 -39 -17 0
-16 -23 -20 -26 -30 -17 0
-16 -29 -18 -20 -39 -17 0
-16 -29 -26 -20 -24 -17 0
-16 -38 -20 -18 -30 -17 0
-16 -38 -26 -18 -24 -17 0
-10 -18 -27 -40 -43 -16 0
-10 -18 -27 -41 -43 -15 0
-10 -18 -28 -40 -41 -16 0
-10 -18 -28 -43 -41 -14 0
-10 -18 -29 -41 -40 -15 0
-10 -18 -29 -43 -40 -14 0
-10 -21 -27 -28 -43 -16 0
-10 -21 -27 -29 -43 -15 0
-10 -21 -40 -28 -29 -16 0
-10 -21 -40 -43 -29 -11 0
-10 -21 -41 -29 -28 -15 0
-10 -21 -41 -43 -28 -11 0
-10 -22 -28 -27 -41 -16 0
-10 -22 -28 -29 -41 -14 0
-10 -22 -40 -27 -29 -16 0
-10 -22 -40 -41 -29 -11 0
-10 -22 -43 -29 -27 -14 0
-10 -22 -43 -41 -27 -11 0
-10 -23 -29 -27 -40 -15 0
-10 -23 -29 -28 -40 -14 0
-10 -23 -41 -27 -28 -15 0
-10 -23 -41 -40 -28 -11 0
-10 -23 -43 -28 -27 -14 0
-10 -23 -43 -40 -27 -11 0
-11 -18 -21 -40 -43 -16 0
-11 -18 -21 -41 -43 -15 0
-11 -18 -22 -40 -41 -16 0
-11 -18 -22 -43 -41 -14 0
-11 -18 -23 -41 -40 -15 0
-11 -18 -23 -43 -40 -14 0
-11 -27 -21 -22 -43 -16 0
-11 -27 -21 -23 -43 -15 0
-11 -27 -40 -22 -23 -16 0
-11 -27 -41 -23 -22 -15 0
-11 -28 -22 -21 -41 -16 0
-11 -28 -22 -23 -41 -14 0
-11 -28 -40 -21 -23 -16 0
-11 -28 -43 -23 -21 -14 0
-11 -29 -23 -21 -40 -15 0
-11 -29 -23 -22 -40 -14 0
-11 -29 -41 -21 -22 -15 0
-11 -29 -43 -22 -21 -14 0
-14 -21 -18 -28 -43 -16 0
-14 -21 -18 -29 -43 -15 0
-14 -21 -22 -28 -29 -16 0
-14 -21 -23 -29 -28 -15 0
-14 -27 -18 -22 -43 -16 0
-14 -27 -18 -23 -43 -15 0
-14 -27 -28 -22 -23 -16 0
-14 -27 -29 -23 -22 -15 0
-14 -40 -22 -18 -29 -16 0
-14 -40 -28 -18 -23 -16 0
-14 -41 -23 -18 -28 -15 0
-14 -41 -29 -18 -22 -15 0
-15 -22 -18 -27 -41 -16 0
-15 -22 -21 -27 -29 -16 0
-15 -28 -18 -21 -41 -16 0
-15 -28 -27 -21 -23 -16 0
-15 -40 -21 -18 -29 -16 0
-15 -40 -27 -18 -23 -16 0
-10 -18 -27 -40 -44 -17 0
-10 -18 -27 -42 -44 -15 0
-10 -18 -28 -40 -42 -17 0
-10 -18 -28 -44 -42 -14 0
-10 -18 -30 -42 -40 -15 0
-10 -18 -30 -44 -40 -14 0
-10 -21 -27 -28 -44 -17 0
-10 -21 -27 -30 -44 -15 0
-10 -21 -40 -28 -30 -17 0
-10 -21 -40 -44 -30 -11 0
-10 -21 -42 -30 -28 -15 0
-10 -21 -42 -44 -28 -11 0
-10 -22 -28 -27 -42 -17 0
-10 -22 -28 -30 -42 -14 0
-10 -22 -40 -27 -30 -17 0
-10 -22 -40 -42 -30 -11 0
-10 -22 -44 -30 -27 -14 0
-10 -22 -44 -42 -27 -11 0
-10 -24 -30 -27 -40 -15 0
-10 -24 -30 -28 -40 -14 0
-10 -24 -42 -27 -28 -15 0
-10 -24 -42 -40 -28 -11 0
-10 -24 -44 -28 -27 -14 0
-10 -24 -44 -40 -27 -11 0
-11 -18 -21 -40 -44 -17 0
-11 -18 -21 -42 -44 -15 0
-11 -18 -22 -40 -42 -17 0
-11 -18 -22 -44 -42 -14 0
-11 -18 -24 -42 -40 -15 0
-11 -18 -24 -44 -40 -14 0
-11 -27 -21 -22 -44 -17 0
-11 -27 -21 -24 -44 -15 0
-11 -27 -40 -22 -24 -17 0
-11 -27 -42 -24 -22 -15 0
-11 -28 -22 -21 -42 -17 0
-11 -28 -22 -24 -42 -14 0
-11 -28 -40 -21 -24 -17 0
-11 -28 -44 -24 -21 -14 0
-11 -30 -24 -21 -40 -15 0
-11 -30 -24 -22 -40 -14 0
-11 -30 -42 -21 -22 -15 0
-11 -30 -44 -22 -21 -14 0
-14 -21 -18 -28 -44 -17 0
-14 -21 -18 -30 -44 -15 0
-14 -21 -22 -28 -30 -17 0
-14 -21 -24 -30 -28 -15 0
-14 -27 -18 -22 -44 -17 0
-14 -27 -18 -24 -44 -15 0
-14 -27 -28 -22 -24 -17 0
-14 -27 -30 -24 -22 -15 0
-14 -40 -22 -18 -30 -17 0
-14 -40 -28 -18 -24 -17 0
-14 -42 -24 -18 -28 -15 0
-14 -42 -30 -18 -22 -15 0
-15 -22 -18 -27 -42 -17 0
-15 -22 -21 -27 -30 -17 0
-15 -28 -18 -21 -42 -17 0
-15 -28 -27 -21 -24 -17 0
-15 -40 -21 -18 -30 -17 0
-15 -40 -27 -18 -24 -17 0
-10 -18 -27 -41 -45 -17 0
-10 -18 -27 -42 -45 -16 0
-10 -18 -29 -41 -42 -17 0
-10 -18 -29 -45 -42 -14 0
-10 -18 -30 -42 -41 -16 0
-10 -18 -30 -45 -41 -14 0
-10 -21 -27 -29 -45 -17 0
-10 -21 -27 -30 -45 -16 0
-10 -21 -41 -29 -30 -17 0
-10 -21 -41 -45 -30 -11 0
-10 -21 -42 -30 -29 -16 0
-10 -21 -42 -45 -29 -11 0
-10 -23 -29 -27 -42 -17 0
-10 -23 -29 -30 -42 -14 0
-10 -23 -41 -27 -30 -17 0
-10 -23 -41 -42 -30 -11 0
-10 -23 -45 -30 -27 -14 0
-10 -23 -45 -42 -27 -11 0
-10 -24 -30 -27 -41 -16 0
-10 -24 -30 -29 -41 -14 0
-10 -24 -42 -27 -29 -16 0
-10 -24 -42 -41 -29 -11 0
-10 -24 -45 -29 -27 -14 0
-10 -24 -45 -41 -27 -11 0
-11 -18 -21 -41 -45 -17 0
-11 -18 -21 -42 -45 -16 0
-11 -18 -23 -41 -42 -17 0
-11 -18 -23 -45 -42 -14 0
-11 -18 -24 -42 -41 -16 0
-11 -18 -24 -45 -41 -14 0
-11 -27 -21 -23 -45 -17 0
-11 -27 -21 -24 -45 -16 0
-11 -27 -41 -23 -24 -17 0
-11 -27 -42 -24 -23 -16 0
-11 -29 -23 -21 -42 -17 0
-11 -29 -23 -24 -42 -14 0
-11 -29 -41 -21 -24 -17 0
-11 -29 -45 -24 -21 -14 0
-11 -30 -24 -21 -41 -16 0
-11 -30 -24 -23 -41 -14 0
-11 -30 -42 -21 -23 -16 0
-11 -30 -45 -23 -21 -14 0
-14 -21 -18 -29 -45 -17 0
-14 -21 -18 -30 -45 -16 0
-14 -21 -23 -29 -30 -17 0
-14 -21 -24 -30 -29 -16 0
-14 -27 -18 -23 -45 -17 0
-14 -27 -18 -24 -45 -16 0
-14 -27 -29 -23 -24 -17 0
-14 -27 -30 -24 -23 -16 0
-14 -41 -23 -18 -30 -17 0
-14 -41 -29 -18 -24 -17 0
-14 -42 -24 -18 -29 -16 0
-14 -42 -30 -18 -23 -16 0
-16 -23 -18 -27 -42 -17 0
-16 -23 -21 -27 -30 -17 0
-16 -29 -18 -21 -42 -17 0
-16 -29 -27 -21 -24 -17 0
-16 -41 -21 -18 -30 -17 0
-16 -41 -27 -18 -24 -17 0
-10 -18 -28 -43 -45 -17 0
-10 -18 -28 -44 -45 -16 0
-10 -18 -29 -43 -44 -17 0
-10 -18 -29 -45 -44 -15 0
-10 -18 -30 -44 -43 -16 0
-10 -18 -30 -45 -43 -15 0
-10 -22 -28 -29 -45 -17 0
-10 -22 -28 -30 -45 -16 0
-10 -22 -43 -29 -30 -17 0
-10 -22 -43 -45 -30 -11 0
-10 -22 -44 -30 -29 -16 0
-10 -22 -44 -45 -29 -11 0
-10 -23 -29 -28 -44 -17 0
-10 -23 -29 -30 -44 -15 0
-10 -23 -43 -28 -30 -17 0
-10 -23 -43 -44 -30 -11 0
-10 -23 -45 -30 -28 -15 0
-10 -23 -45 -44 -28 -11 0
-10 -24 -30 -28 -43 -16 0
-10 -24 -30 -29 -43 -15 0
-10 -24 -44 -28 -29 -16 0
-10 -24 -44 -43 -29 -11 0
-10 -24 -45 -29 -28 -15 0
-10 -24 -45 -43 -28 -11 0
-11 -18 -22 -43 -45 -17 0
-11 -18 -22 -44 -45 -16 0
-11 -18 -23 -43 -44 -17 0
-11 -18 -23 -45 -44 -15 0
-11 -18 -24 -44 -43 -16 0
-11 -18 -24 -45 -43 -15 0
-11 -28 -22 -23 -45 -17 0
-11 -28 -22 -24 -45 -16 0
-11 -28 -43 -23 -24 -17 0
-11 -28 -44 -24 -23 -16 0
-11 -29 -23 -22 -44 -17 0
-11 -29 -23 -24 -44 -15 0
-11 -29 -43 -22 -24 -17 0
-11 -29 -45 -24 -22 -15 0
-11 -30 -24 -22 -43 -16 0
-11 -30 -24 -23 -43 -15 0
-11 -30 -44 -22 -23 -16 0
-11 -30 -45 -23 -22 -15 0
-15 -22 -18 -29 -45 -17 0
-15 -22 -18 -30 -45 -16 0
-15 -22 -23 -29 -30 -17 0
-15 -22 -24 -30 -29 -16 0
-15 -28 -18 -23 -45 -17 0
-15 -28 -18 -24 -45 -16 0
-15 -28 -29 -23 -24 -17 0
-15 -28 -30 -24 -23 -16 0
-15 -43 -23 -18 -30 -17 0
-15 -43 -29 -18 -24 -17 0
-15 -44 -24 -18 -29 -16 0
-15 -44 -30 -18 -23 -16 0
-16 -23 -18 -28 -44 -17 0
-16 -23 -22 -28 -30 -17 0
-16 -29 -18 -22 -44 -17 0
-16 -29 -28 -22 -24 -17 0
-16 -43 -22 -18 -30 -17 0
-16 -43 -28 -18 -24 -17 0
-10 -19 -31 -36 -40 -15 0
-10 -19 -31 -37 -40 -14 0
-10 -19 -32 -36 -37 -15 0
-10 -19 -32 -40 -37 -13 0
-10 -19 -33 -37 -36 -14 0
-10 -19 -33 -40 -36 -13 0
-10 -20 -31 -32 -40 -15 0
-10 -20 -31 -33 -40 -14 0
-10 -20 -36 -32 -33 -15 0
-10 -20 -36 -40 -33 -12 0
-10 -20 -37 -33 -32 -14 0
-10 -20 -37 -40 -32 -12 0
-10 -21 -32 -31 -37 -15 0
-10 -21 -32 -33 -37 -13 0
-10 -21 -36 -31 -33 -15 0
-10 -21 -36 -37 -33 -12 0
-10 -21 -40 -33 -31 -13 0
-10 -21 -40 -37 -31 -12 0
-10 -22 -33 -31 -36 -14 0
-10 -22 -33 -32 -36 -13 0
-10 -22 -37 -31 -32 -14 0
-10 -22 -37 -36 -32 -12 0
-10 -22 -40 -32 -31 -13 0
-10 -22 -40 -36 -31 -12 0
-12 -19 -20 -36 -40 -15 0
-12 -19 -20 -37 -40 -14 0
-12 -19 -21 -36 -37 -15 0
-12 -19 -21 -40 -37 -13 0
-12 -19 -22 -37 -36 -14 0
-12 -19 -22 -40 -36 -13 0
-12 -31 -20 -21 -40 -15 0
-12 -31 -20 -22 -40 -14 0
-12 -31 -36 -21 -22 -15 0
-12 -31 -37 -22 -21 -14 0
-12 -32 -21 -20 -37 -15 0
-12 -32 -21 -22 -37 -13 0
-12 -32 -36 -20 -22 -15 0
-12 -32 -40 -22 -20 -13 0
-12 -33 -22 -20 -36 -14 0
-12 -33 -22 -21 -36 -13 0
-12 -33 -37 -20 -21 -14 0
-12 -33 -40 -21 -20 -13 0
-13 -20 -19 -32 -40 -15 0
-13 -20 -19 -33 -40 -14 0
-13 -20 -21 -32 -33 -15 0
-13 -20 -22 -33 -32 -14 0
-13 -31 -19 -21 -40 -15 0
-13 -31 -19 -22 -40 -14 0
-13 -31 -32 -21 -22 -15 0
-13 -31 -33 -22 -21 -14 0
-13 -36 -21 -19 -33 -15 0
-13 -36 -32 -19 -22 -15 0
-13 -37 -22 -19 -32 -14 0
-13 -37 -33 -19 -21 -14 0
-14 -21 -19 -31 -37 -15 0
-14 -21 -20 -31 -33 -15 0
-14 -32 -19 -20 -37 -15 0
-14 -32 -31 -20 -22 -15 0
-14 -36 -20 -19 -33 -15 0
-14 -36 -31 -19 -22 -15 0
-10 -19 -31 -36 -41 -16 0
-10 -19 -31 -38 -41 -14 0
-10 -19 -32 -36 -38 -16 0
-10 -19 -32 -41 -38 -13 0
-10 -19 -34 -38 -36 -14 0
-10 -19 -34 -41 -36 -13 0
-10 -20 -31 -32 -41 -16 0
-10 -20 -31 -34 -41 -14 0
-10 -20 -36 -32 -34 -16 0
-10 -20 -36 -41 -34 -12 0
-10 -20 -38 -34 -32 -14 0
-10 -20 -38 -41 -32 -12 0
-10 -21 -32 -31 -38 -16 0
-10 -21 -32 -34 -38 -13 0
-10 -21 -36 -31 -34 -16 0
-10 -21 -36 -38 -34 -12 0
-10 -21 -41 -34 -31 -13 0
-10 -21 -41 -38 -31 -12 0
-10 -23 -34 -31 -36 -14 0
-10 -23 -34 -32 -36 -13 0
-10 -23 -38 -31 -32 -14 0
-10 -23 -38 -36 -32 -12 0
-10 -23 -41 -32 -31 -13 0
-10 -23 -41 -36 -31 -12 0
-12 -19 -20 -36 -41 -16 0
-12 -19 -20 -38 -41 -14 0
-12 -19 -21 -36 -38 -16 0
-12 -19 -21 -41 -38 -13 0
-12 -19 -23 -38 -36 -14 0
-12 -19 -23 -41 -36 -13 0
-12 -31 -20 -21 -41 -16 0
-12 -31 -20 -23 -41 -14 0
-12 -31 -36 -21 -23 -16 0
-12 -31 -38 -23 -21 -14 0
-12 -32 -21 -20 -38 -16 0
-12 -32 -21 -23 -38 -13 0
-12 -32 -36 -20 -23 -16 0
-12 -32 -41 -23 -20 -13 0
-12 -34 -23 -20 -36 -14 0
-12 -34 -23 -21 -36 -13 0
-12 -34 -38 -20 -21 -14 0
-12 -34 -41 -21 -20 -13 0
-13 -20 -19 -32 -41 -16 0
-13 -20 -19 -34 -41 -14 0
-13 -20 -21 -32 -34 -16 0
-13 -20 -23 -34 -32 -14 0
-13 -31 -19 -21 -41 -16 0
-13 -31 -19 -23 -41 -14 0
-13 -31 -32 -21 -23 -16 0
-13 -31 -34 -23 -21 -14 0
-13 -36 -21 -19 -34 -16 0
-13 -36 -32 -19 -23 -16 0
-13 -38 -23 -19 -32 -14 0
-13 -38 -34 -19 -21 -14 0
-14 -21 -19 -31 -38 -16 0
-14 -21 -20 -31 -34 -16 0
-14 -32 -19 -20 -38 -16 0
-14 -32 -31 -20 -23 -16 0
-14 -36 -20 -19 -34 -16 0
-14 -36 -31 -19 -23 -16 0
-10 -19 -31 -36 -42 -17 0
-10 -19 -31 -39 -42 -14 0
-10 -19 -32 -36 -39 -17 0
-10 -19 -32 -42 -39 -13 0
-10 -19 -35 -39 -36 -14 0
-10 -19 -35 -42 -36 -13 0
-10 -20 -31 -32 -42 -17 0
-10 -20 -31 -35 -42 -14 0
-10 -20 -36 -32 -35 -17 0
-10 -20 -36 -42 -35 -12 0
-10 -20 -39 -35 -32 -14 0
-10 -20 -39 -42 -32 -12 0
-10 -21 -32 -31 -39 -17 0
-10 -21 -32 -35 -39 -13 0
-10 -21 -36 -31 -35 -17 0
-10 -21 -36 -39 -35 -12 0
-10 -21 -42 -35 -31 -13 0
-10 -21 -42 -39 -31 -12 0
-10 -24 -35 -31 -36 -14 0
-10 -24 -35 -32 -36 -13 0
-10 -24 -39 -31 -32 -14 0
-10 -24 -39 -36 -32 -12 0
-10 -24 -42 -32 -31 -13 0
-10 -24 -42 -36 -31 -12 0
-12 -19 -20 -36 -42 -17 0
-12 -19 -20 -39 -42 -14 0
-12 -19 -21 -36 -39 -17 0
-12 -19 -21 -42 -39 -13 0
-12 -19 -24 -39 -36 -14 0
-12 -19 -24 -42 -36 -13 0
-12 -31 -20 -21 -42 -17 0
-12 -31 -20 -24 -42 -14 0
-12 -31 -36 -21 -24 -17 0
-12 -31 -39 -24 -21 -14 0
-12 -32 -21 -20 -39 -17 0
-12 -32 -21 -24 -39 -13 0
-12 -32 -36 -20 -24 -17 0
-12 -32 -42 -24 -20 -13 0
-12 -35 -24 -20 -36 -14 0
-12 -35 -24 -21 -36 -13 0
-12 -35 -39 -20 -21 -14 0
-12 -35 -42 -21 -20 -13 0
-13 -20 -19 -32 -42 -17 0
-13 -20 -19 -35 -42 -14 0
-13 -20 -21 -32 -35 -17 0
-13 -20 -24 -35 -32 -14 0
-13 -31 -19 -21 -42 -17 0
-13 -31 -19 -24 -42 -14 0
-13 -31 -32 -21 -24 -17 0
-13 -31 -35 -24 -21 -14 0
-13 -36 -21 -19 -35 -17 0
-13 -36 -32 -19 -24 -17 0
-13 -39 -24 -19 -32 -14 0
-13 -39 -35 -19 -21 -14 0
-14 -21 -19 -31 -39 -17 0
-14 -21 -20 -31 -35 -17 0
-14 -32 -19 -20 -39 -17 0
-14 -32 -31 -20 -24 -17 0
-14 -36 -20 -19 -35 -17 0
-14 -36 -31 -19 -24 -17 0
-10 -19 -31 -37 -43 -16 0
-10 -19 -31 -38 -43 -15 0
-10 -19 -33 -37 -38 -16 0
-10 -19 -33 -43 -38 -13 0
-10 -19 -34 -38 -37 -15 0
-10 -19 -34 -43 -37 -13 0
-10 -20 -31 -33 -43 -16 0
-10 -20 -31 -34 -43 -15 0
-10 -20 -37 -33 -34 -16 0
-10 -20 -37 -43 -34 -12 0
-10 -20 -38 -34 -33 -15 0
-10 -20 -38 -43 -33 -12 0
-10 -22 -33 -31 -38 -16 0
-10 -22 -33 -34 -38 -13 0
-10 -22 -37 -31 -34 -16 0
-10 -22 -37 -38 -34 -12 0
-10 -22 -43 -34 -31 -13 0
-10 -22 -43 -38 -31 -12 0
-10 -23 -34 -31 -37 -15 0
-10 -23 -34 -33 -37 -13 0
-10 -23 -38 -31 -33 -15 0
-10 -23 -38 -37 -33 -12 0
-10 -23 -43 -33 -31 -13 0
-10 -23 -43 -37 -31 -12 0
-12 -19 -20 -37 -43 -16 0
-12 -19 -20 -38 -43 -15 0
-12 -19 -22 -37 -38 -16 0
-12 -19 -22 -43 -38 -13 0
-12 -19 -23 -38 -37 -15 0
-12 -19 -23 -43 -37 -13 0
-12 -31 -20 -22 -43 -16 0
-12 -31 -20 -23 -43 -15 0
-12 -31 -37 -22 -23 -16 0
-12 -31 -38 -23 -22 -15 0
-12 -33 -22 -20 -38 -16 0
-12 -33 -22 -23 -38 -13 0
-12 -33 -37 -20 -23 -16 0
-12 -33 -43 -23 -20 -13 0
-12 -34 -23 -20 -37 -15 0
-12 -34 -23 -22 -37 -13 0
-12 -34 -38 -20 -22 -15 0
-12 -34 -43 -22 -20 -13 0
-13 -20 -19 -33 -43 -16 0
-13 -20 -19 -34 -43 -15 0
-13 -20 -22 -33 -34 -16 0
-13 -20 -23 -34 -33 -15 0
-13 -31 -19 -22 -43 -16 0
-13 -31 -19 -23 -43 -15 0
-13 -31 -33 -22 -23 -16 0
-13 -31 -34 -23 -22 -15 0
-13 -37 -22 -19 -34 -16 0
-13 -37 -33 -19 -23 -16 0
-13 -38 -23 -19 -33 -15 0
-13 -38 -34 -19 -22 -15 0
-15 -22 -19 -31 -38 -16 0
-15 -22 -20 -31 -34 -16 0
-15 -33 -19 -20 -38 -16 0
-15 -33 -31 -20 -23 -16 0
-15 -37 -20 -19 -34 -16 0
-15 -37 -31 -19 -23 -16 0
-10 -19 -31 -37 -44 -17 0
-10 -19 -31 -39 -44 -15 0
-10 -19 -33 -37 -39 -17 0
-10 -19 -33 -44 -39 -13 0
-10 -19 -35 -39 -37 -15 0
-10 -19 -35 -44 -37 -13 0
-10 -20 -31 -33 -44 -17 0
-10 -20 -31 -35 -44 -15 0
-10 -20 -37 -33 -35 -17 0
-10 -20 -37 -44 -35 -12 0
-10 -20 -39 -35 -33 -15 0
-10 -20 -39 -44 -33 -12 0
-10 -22 -33 -31 -39 -17 0
-10 -22 -33 -35 -39 -13 0
-10 -22 -37 -31 -35 -17 0
-10 -22 -37 -39 -35 -12 0
-10 -22 -44 -35 -31 -13 0
-10 -22 -44 -39 -31 -12 0
-10 -24 -35 -31 -37 -15 0
-10 -24 -35 -33 -37 -13 0
-10 -24 -39 -31 -33 -15 0
-10 -24 -39 -37 -33 -12 0
-10 -24 -44 -33 -31 -13 0
-10 -24 -44 -37 -31 -12 0
-12 -19 -20 -37 -44 -17 0
-12 -19 -20 -39 -44 -15 0
-12 -19 -22 -37 -39 -17 0
-12 -19 -22 -44 -39 -13 0
-12 -19 -24 -39 -37 -15 0
-12 -19 -24 -44 -37 -13 0
-12 -31 -20 -22 -44 -17 0
-12 -31 -20 -24 -44 -15 0
-12 -31 -37 -22 -24 -17 0
-12 -31 -39 -24 -22 -15 0
-12 -33 -22 -20 -39 -17 0
-12 -33 -22 -24 -39 -13 0
-12 -33 -37 -20 -24 -17 0
-12 -33 -44 -24 -20 -13 0
-12 -35 -24 -20 -37 -15 0
-12 -35 -24 -22 -37 -13 0
-12 -35 -39 -20 -22 -15 0
-12 -35 -44 -22 -20 -13 0
-13 -20 -19 -33 -44 -17 0
-13 -20 -19 -35 -44 -15 0
-13 -20 -22 -33 -35 -17 0
-13 -20 -24 -35 -33 -15 0
-13 -31 -19 -22 -44 -17 0
-13 -31 -19 -24 -44 -15 0
-13 -31 -33 -22 -24 -17 0
-13 -31 -35 -24 -22 -15 0
-13 -37 -22 -19 -35 -17 0
-13 -37 -33 -19 -24 -17 0
-13 -39 -24 -19 -33 -15 0
-13 -39 -35 -19 -22 -15 0
-15 -22 -19 -31 -39 -17 0
-15 -22 -20 -31 -35 -17 0
-15 -33 -19 -20 -39 -17 0
-15 -33 -31 -20 -24 -17 0
-15 -37 -20 -19 -35 -17 0
-15 -37 -31 -19 -24 -17 0
-10 -19 -31 -38 -45 -17 0
-10 -19 -31 -39 -45 -16 0
-10 -19 -34 -38 -39 -17 0
-10 -19 -34 -45 -39 -13 0
-10 -19 -35 -39 -38 -16 0
-10 -19 -35 -45 -38 -13 0
-10 -20 -31 -34 -45 -17 0
-10 -20 -31 -35 -45 -16 0
-10 -20 -38 -34 -35 -17 0
-10 -20 -38 -45 -35 -12 0
-10 -20 -39 -35 -34 -16 0
-10 -20 -39 -45 -34 -12 0
-10 -23 -34 -31 -39 -17 0
-10 -23 -34 -35 -39 -13 0
-10 -23 -38 -31 -35 -17 0
-10 -23 -38 -39 -35 -12 0
-10 -23 -45 -35 -31 -13 0
-10 -23 -45 -39 -31 -12 0
-10 -24 -35 -31 -38 -16 0
-10 -24 -35 -34 -38 -13 0
-10 -24 -39 -31 -34 -16 0
-10 -24 -39 -38 -34 -12 0
-10 -24 -45 -34 -31 -13 0
-10 -24 -45 -38 -31 -12 0
-12 -19 -20 -38 -45 -17 0
-12 -19 -20 -39 -45 -16 0
-12 -19 -23 -38 -39 -17 0
-12 -19 -23 -45 -39 -13 0
-12 -19 -24 -39 -38 -16 0
-12 -19 -24 -45 -38 -13 0
-12 -31 -20 -23 -45 -17 0
-12 -31 -20 -24 -45 -16 0
-12 -31 -38 -23 -24 -17 0
-12 -31 -39 -24 -23 -16 0
-12 -34 -23 -20 -39 -17 0
-12 -34 -23 -24 -39 -13 0
-12 -34 -38 -20 -24 -17 0
-12 -34 -45 -24 -20 -13 0
-12 -35 -24 -20 -38 -16 0
-12 -35 -24 -23 -38 -13 0
-12 -35 -39 -20 -23 -16 0
-12 -35 -45 -23 -20 -13 0
-13 -20 -19 -34 -45 -17 0
-13 -20 -19 -35 -45 -16 0
-13 -20 -23 -34 -35 -17 0
-13 -20 -24 -35 -34 -16 0
-13 -31 -19 -23 -45 -17 0
-13 -31 -19 -24 -45 -16 0
-13 -31 -34 -23 -24 -17 0
-13 -31 -35 -24 -23 -16 0
-13 -38 -23 -19 -35 -17 0
-13 -38 -34 -19 -24 -17 0
-13 -39 -24 -19 -34 -16 0
-13 -39 -35 -19 -23 -16 0
-16 -23 -19 -31 -39 -17 0
-16 -23 -20 -31 -35 -17 0
-16 -34 -19 -20 -39 -17 0
-16 -34 -31 -20 -24 -17 0
-16 -38 -20 -19 -35 -17 0
-16 -38 -31 -19 -24 -17 0
-10 -19 -32 -40 -43 -16 0
-10 -19 -32 -41 -43 -15 0
-10 -19 -33 -40 -41 -16 0
-10 -19 -33 -43 -41 -14 0
-10 -19 -34 -41 -40 -15 0
-10 -19 -34 -43 -40 -14 0
-10 -21 -32 -33 -43 -16 0
-10 -21 -32 -34 -43 -15 0
-10 -21 -40 -33 -34 -16 0
-10 -21 -40 -43 -34 -12 0
-10 -21 -41 -34 -33 -15 0
-10 -21 -41 -43 -33 -12 0
-10 -22 -33 -32 -41 -16 0
-10 -22 -33 -34 -41 -14 0
-10 -22 -40 -32 -34 -16 0
-10 -22 -40 -41 -34 -12 0
-10 -22 -43 -34 -32 -14 0
-10 -22 -43 -41 -32 -12 0
-10 -23 -34 -32 -40 -15 0
-10 -23 -34 -33 -40 -14 0
-10 -23 -41 -32 -33 -15 0
-10 -23 -41 -40 -33 -12 0
-10 -23 -43 -33 -32 -14 0
-10 -23 -43 -40 -32 -12 0
-12 -19 -21 -40 -43 -16 0
-12 -19 -21 -41 -43 -15 0
-12 -19 -22 -40 -41 -16 0
-12 -19 -22 -43 -41 -14 0
-12 -19 -23 -41 -40 -15 0
-12 -19 -23 -43 -40 -14 0
-12 -32 -21 -22 -43 -16 0
-12 -32 -21 -23 -43 -15 0
-12 -32 -40 -22 -23 -16 0
-12 -32 -41 -23 -22 -15 0
-12 -33 -22 -21 -41 -16 0
-12 -33 -22 -23 -41 -14 0
-12 -33 -40 -21 -23 -16 0
-12 -33 -43 -23 -21 -14 0
-12 -34 -23 -21 -40 -15 0
-12 -34 -23 -22 -40 -14 0
-12 -34 -41 -21 -22 -15 0
-12 -34 -43 -22 -21 -14 0
-14 -21 -19 -33 -43 -16 0
-14 -21 -19 -34 -43 -15 0
-14 -21 -22 -33 -34 -16 0
-14 -21 -23 -34 -33 -15 0
-14 -32 -19 -22 -43 -16 0
-14 -32 -19 -23 -43 -15 0
-14 -32 -33 -22 -23 -16 0
-14 -32 -34 -23 -22 -15 0
-14 -40 -22 -19 -34 -16 0
-14 -40 -33 -19 -23 -16 0
-14 -41 -23 -19 -33 -15 0
-14 -41 -34 -19 -22 -15 0
-15 -22 -19 -32 -41 -16 0
-15 -22 -21 -32 -34 -16 0
-15 -33 -19 -21 -41 -16 0
-15 -33 -32 -21 -23 -16 0
-15 -40 -21 -19 -34 -16 0
-15 -40 -32 -19 -23 -16 0
-10 -19 -32 -40 -44 -17 0
-10 -19 -32 -42 -44 -15 0
-10 -19 -33 -40 -42 -17 0
-10 -19 -33 -44 -42 -14 0
-10 -19 -35 -42 -40 -15 0
-10 -19 -35 -44 -40 -14 0
-10 -21 -32 -33 -44 -17 0
-10 -21 -32 -35 -44 -15 0
-10 -21 -40 -33 -35 -17 0
-10 -21 -40 -44 -35 -12 0
-10 -21 -42 -35 -33 -15 0
-10 -21 -42 -44 -33 -12 0
-10 -22 -33 -32 -42 -17 0
-10 -22 -33 -35 -42 -14 0
-10 -22 -40 -32 -35 -17 0
-10 -22 -40 -42 -35 -12 0
-10 -22 -44 -35 -32 -14 0
-10 -22 -44 -42 -32 -12 0
-10 -24 -35 -32 -40 -15 0
-10 -24 -35 -33 -40 -14 0
-10 -24 -42 -32 -33 -15 0
-10 -24 -42 -40 -33 -12 0
-10 -24 -44 -33 -32 -14 0
-10 -24 -44 -40 -32 -12 0
-12 -19 -21 -40 -44 -17 0
-12 -19 -21 -42 -44 -15 0
-12 -19 -22 -40 -42 -17 0
-12 -19 -22 -44 -42 -14 0
-12 -19 -24 -42 -40 -15 0
-12 -19 -24 -44 -40 -14 0
-12 -32 -21 -22 -44 -17 0
-12 -32 -21 -24 -44 -15 0
-12 -32 -40 -22 -24 -17 0
-12 -32 -42 -24 -22 -15 0
-12 -33 -22 -21 -42 -17 0
-12 -33 -22 -24 -42 -14 0
-12 -33 -40 -21 -24 -17 0
-12 -33 -44 -24 -21 -14 0
-12 -35 -24 -21 -40 -15 0
-12 -35 -24 -22 -40 -14 0
-12 -35 -42 -21 -22 -15 0
-12 -35 -44 -22 -21 -14 0
-14 -21 -19 -33 -44 -17 0
-14 -21 -19 -35 -44 -15 0
-14 -21 -22 -33 -35 -17 0
-14 -21 -24 -35 -33 -15 0
-14 -32 -19 -22 -44 -17 0
-14 -32 -19 -24 -44 -15 0
-14 -32 -33 -22 -24 -17 0
-14 -32 -35 -24 -22 -15 0
-14 -40 -22 -19 -35 -17 0
-14 -40 -33 -19 -24 -17 0
-14 -42 -24 -19 -33 -15 0
-14 -42 -35 -19 -22 -15 0
-15 -22 -19 -32 -42 -17 0
-15 -22 -21 -32 -35 -17 0
-15 -33 -19 -21 -42 -17 0
-15 -33 -32 -21 -24 -17 0
-15 -40 -21 -19 -35 -17 0
-15 -40 -32 -19 -24 -17 0
-10 -19 -32 -41 -45 -17 0
-10 -19 -32 -42 -45 -16 0
-10 -19 -34 -41 -42 -17 0
-10 -19 -34 -45 -42 -14 0
-10 -19 -35 -42 -41 -16 0
-10 -19 -35 -45 -41 -14 0
-10 -21 -32 -34 -45 -17 0
-10 -21 -32 -35 -45 -16 0
-10 -21 -41 -34 -35 -17 0
-10 -21 -41 -45 -35 -12 0
-10 -21 -42 -35 -34 -16 0
-10 -21 -42 -45 -34 -12 0
-10 -23 -34 -32 -42 -17 0
-10 -23 -34 -35 -42 -14 0
-10 -23 -41 -32 -35 -17 0
-10 -23 -41 -42 -35 -12 0
-10 -23 -45 -35 -32 -14 0
-10 -23 -45 -42 -32 -12 0
-10 -24 -35 -32 -41 -16 0
-10 -24 -35 -34 -41 -14 0
-10 -24 -42 -32 -34 -16 0
-10 -24 -42 -41 -34 -12 0
-10 -24 -45 -34 -32 -14 0
-10 -24 -45 -41 -32 -12 0
-12 -19 -21 -41 -45 -17 0
-12 -19 -21 -42 -45 -16 0
-12 -19 -23 -41 -42 -17 0
-12 -19 -23 -45 -42 -14 0
-12 -19 -24 -42 -41 -16 0
-12 -19 -24 -45 -41 -14 0
-12 -32 -21 -23 -45 -17 0
-12 -32 -21 -24 -45 -16 0
-12 -32 -41 -23 -24 -17 0
-12 -32 -42 -24 -23 -16 0
-12 -34 -23 -21 -42 -17 0
-12 -34 -23 -24 -42 -14 0
-12 -34 -41 -21 -24 -17 0
-12 -34 -45 -24 -21 -14 0
-12 -35 -24 -21 -41 -16 0
-12 -35 -24 -23 -41 -14 0
-12 -35 -42 -21 -23 -16 0
-12 -35 -45 -23 -21 -14 0
-14 -21 -19 -34 -45 -17 0
-14 -21 -19 -35 -45 -16 0
-14 -21 -23 -34 -35 -17 0
-14 -21 -24 -35 -34 -16 0
-14 -32 -19 -23 -45 -17 0
-14 -32 -19 -24 -45 -16 0
-14 -32 -34 -23 -24 -17 0
-14 -32 -35 -24 -23 -16 0
-14 -41 -23 -19 -35 -17 0
-14 -41 -34 -19 -24 -17 0
-14 -42 -24 -19 -34 -16 0
-14 -42 -35 -19 -23 -16 0
-16 -23 -19 -32 -42 -17 0
-16 -23 -21 -32 -35 -17 0
-16 -34 -19 -21 -42 -17 0
-16 -34 -32 -21 -24 -17 0
-16 -41 -21 -19 -35 -17 0
-16 -41 -32 -19 -24 -17 0
-10 -19 -33 -43 -45 -17 0
-10 -19 -33 -44 -45 -16 0
-10 -19 -34 -43 -44 -17 0
-10 -19 -34 -45 -44 -15 0
-10 -19 -35 -44 -43 -16 0
-10 -19 -35 -45 -43 -15 0
-10 -22 -33 -34 -45 -17 0
-10 -22 -33 -35 -45 -16 0
-10 -22 -43 -34 -35 -17 0
-10 -22 -43 -45 -35 -12 0
-10 -22 -44 -35 -34 -16 0
-10 -22 -44 -45 -34 -12 0
-10 -23 -34 -33 -44 -17 0
-10 -23 -34 -35 -44 -15 0
-10 -23 -43 -33 -35 -17 0
-10 -23 -43 -44 -35 -12 0
-10 -23 -45 -35 -33 -15 0
-10 -23 -45 -44 -33 -12 0
-10 -24 -35 -33 -43 -16 0
-10 -24 -35 -34 -43 -15 0
-10 -24 -44 -33 -34 -16 0
-10 -24 -44 -43 -34 -12 0
-10 -24 -45 -34 -33 -15 0
-10 -24 -45 -43 -33 -12 0
-12 -19 -22 -43 -45 -17 0
-12 -19 -22 -44 -45 -16 0
-12 -19 -23 -43 -44 -17 0
-12 -19 -23 -45 -44 -15 0
-12 -19 -24 -44 -43 -16 0
-12 -19 -24 -45 -43 -15 0
-12 -33 -22 -23 -45 -17 0
-12 -33 -22 -24 -45 -16 0
-12 -33 -43 -23 -24 -17 0
-12 -33 -44 -24 -23 -16 0
-12 -34 -23 -22 -44 -17 0
-12 -34 -23 -24 -44 -15 0
-12 -34 -43 -22 -24 -17 0
-12 -34 -45 -24 -22 -15 0
-12 -35 -24 -22 -43 -16 0
-12 -35 -24 -23 -43 -15 0
-12 -35 -44 -22 -23 -16 0
-12 -35 -45 -23 -22 -15 0
-15 -22 -19 -34 -45 -17 0
-15 -22 -19 -35 -45 -16 0
-15 -22 -23 -34 -35 -17 0
-15 -22 -24 -35 -34 -16 0
-15 -33 -19 -23 -45 -17 0
-15 -33 -19 -24 -45 -16 0
-15 -33 -34 -23 -24 -17 0
-15 -33 -35 -24 -23 -16 0
-15 -43 -23 -19 -35 -17 0
-15 -43 -34 -19 -24 -17 0
-15 -44 -24 -19 -34 -16 0
-15 -44 -35 -19 -23 -16 0
-16 -23 -19 -33 -44 -17 0
-16 -23 -22 -33 -35 -17 0
-16 -34 -19 -22 -44 -17 0
-16 -34 -33 -22 -24 -17 0
-16 -43 -22 -19 -35 -17 0
-16 -43 -33 -19 -24 -17 0
-10 -20 -36 -40 -43 -16 0
-10 -20 -36 -41 -43 -15 0
-10 -20 -37 -40 -41 -16 0
-10 -20 -37 -43 -41 -14 0
-10 -20 -38 -41 -40 -15 0
-10 -20 -38 -43 -40 -14 0
-10 -21 -36 -37 -43 -16 0
-10 -21 -36 -38 -43 -15 0
-10 -21 -40 -37 -38 -16 0
-10 -21 -40 -43 -38 -13 0
-10 -21 -41 -38 -37 -15 0
-10 -21 -41 -43 -37 -13 0
-10 -22 -37 -36 -41 -16 0
-10 -22 -37 -38 -41 -14 0
-10 -22 -40 -36 -38 -16 0
-10 -22 -40 -41 -38 -13 0
-10 -22 -43 -38 -36 -14 0
-10 -22 -43 -41 -36 -13 0
-10 -23 -38 -36 -40 -15 0
-10 -23 -38 -37 -40 -14 0
-10 -23 -41 -36 -37 -15 0
-10 -23 -41 -40 -37 -13 0
-10 -23 -43 -37 -36 -14 0
-10 -23 -43 -40 -36 -13 0
-13 -20 -21 -40 -43 -16 0
-13 -20 -21 -41 -43 -15 0
-13 -20 -22 -40 -41 -16 0
-13 -20 -22 -43 -41 -14 0
-13 -20 -23 -41 -40 -15 0
-13 -20 -23 -43 -40 -14 0
-13 -36 -21 -22 -43 -16 0
-13 -36 -21 -23 -43 -15 0
-13 -36 -40 -22 -23 -16 0
-13 -36 -41 -23 -22 -15 0
-13 -37 -22 -21 -41 -16 0
-13 -37 -22 -23 -41 -14 0
-13 -37 -40 -21 -23 -16 0
-13 -37 -43 -23 -21 -14 0
-13 -38 -23 -21 -40 -15 0
-13 -38 -23 -22 -40 -14 0
-13 -38 -41 -21 -22 -15 0
-13 -38 -43 -22 -21 -14 0
-14 -21 -20 -37 -43 -16 0
-14 -21 -20 -38 -43 -15 0
-14 -21 -22 -37 -38 -16 0
-14 -21 -23 -38 -37 -15 0
-14 -36 -20 -22 -43 -16 0
-14 -36 -20 -23 -43 -15 0
-14 -36 -37 -22 -23 -16 0
-14 -36 -38 -23 -22 -15 0
-14 -40 -22 -20 -38 -16 0
-14 -40 -37 -20 -23 -16 0
-14 -41 -23 -20 -37 -15 0
-14 -41 -38 -20 -22 -15 0
-15 -22 -20 -36 -41 -16 0
-15 -22 -21 -36 -38 -16 0
-15 -37 -20 -21 -41 -16 0
-15 -37 -36 -21 -23 -16 0
-15 -40 -21 -20 -38 -16 0
-15 -40 -36 -20 -23 -16 0
-10 -20 -36 -40 -44 -17 0
-10 -20 -36 -42 -44 -15 0
-10 -20 -37 -40 -42 -17 0
-10 -20 -37 -44 -42 -14 0
-10 -20 -39 -42 -40 -15 0
-10 -20 -39 -44 -40 -14 0
-10 -21 -36 -37 -44 -17 0
-10 -21 -36 -39 -44 -15 0
-10 -21 -40 -37 -39 -17 0
-10 -21 -40 -44 -39 -13 0
-10 -21 -42 -39 -37 -15 0
-10 -21 -42 -44 -37 -13 0
-10 -22 -37 -36 -42 -17 0
-10 -22 -37 -39 -42 -14 0
-10 -22 -40 -36 -39 -17 0
-10 -22 -40 -42 -39 -13 0
-10 -22 -44 -39 -36 -14 0
-10 -22 -44 -42 -36 -13 0
-10 -24 -39 -36 -40 -15 0
-10 -24 -39 -37 -40 -14 0
-10 -24 -42 -36 -37 -15 0
-10 -24 -42 -40 -37 -13 0
-10 -24 -44 -37 -36 -14 0
-10 -24 -44 -40 -36 -13 0
-13 -20 -21 -40 -44 -17 0
-13 -20 -21 -42 -44 -15 0
-13 -20 -22 -40 -42 -17 0
-13 -20 -22 -44 -42 -14 0
-13 -20 -24 -42 -40 -15 0
-13 -20 -24 -44 -40 -14 0
-13 -36 -21 -22 -44 -17 0
-13 -36 -21 -24 -44 -15 0
-13 -36 -40 -22 -24 -17 0
-13 -36 -42 -24 -22 -15 0
-13 -37 -22 -21 -42 -17 0
-13 -37 -22 -24 -42 -14 0
-13 -37 -40 -21 -24 -17 0
-13 -37 -44 -24 -21 -14 0
-13 -39 -24 -21 -40 -15 0
-13 -39 -24 -22 -40 -14 0
-13 -39 -42 -21 -22 -15 0
-13 -39 -44 -22 -21 -14 0
-14 -21 -20 -37 -44 -17 0
-14 -21 -20 -39 -44 -15 0
-14 -21 -22 -37 -39 -17 0
-14 -21 -24 -39 -37 -15 0
-14 -36 -20 -22 -44 -17 0
-14 -36 -20 -24 -44 -15 0
-14 -36 -37 -22 -24 -17 0
-14 -36 -39 -24 -22 -15 0
-14 -40 -22 -20 -39 -17 0
-14 -40 -37 -20 -24 -17 0
-14 -42 -24 -20 -37 -15 0
-14 -42 -39 -20 -22 -15 0
-15 -22 -20 -36 -42 -17 0
-15 -22 -21 -36 -39 -17 0
-15 -37 -20 -21 -42 -17 0
-15 -37 -36 -21 -24 -17 0
-15 -40 -21 -20 -39 -17 0
-15 -40 -36 -20 -24 -17 0
-10 -20 -36 -41 -45 -17 0
-10 -20 -36 -42 -45 -16 0
-10 -20 -38 -41 -42 -17 0
-10 -20 -38 -45 -42 -14 0
-10 -20 -39 -42 -41 -16 0
-10 -20 -39 -45 -41 -14 0
-10 -21 -36 -38 -45 -17 0
-10 -21 -36 -39 -45 -16 0
-10 -21 -41 -38 -39 -17 0
-10 -21 -41 -45 -39 -13 0
-10 -21 -42 -39 -38 -16 0
-10 -21 -42 -45 -38 -13 0
-10 -23 -38 -36 -42 -17 0
-10 -23 -38 -39 -42 -14 0
-10 -23 -41 -36 -39 -17 0
-10 -23 -41 -42 -39 -13 0
-10 -23 -45 -39 -36 -14 0
-10 -23 -45 -42 -36 -13 0
-10 -24 -39 -36 -41 -16 0
-10 -24 -39 -38 -41 -14 0
-10 -24 -42 -36 -38 -16 0
-10 -24 -42 -41 -38 -13 0
-10 -24 -45 -38 -36 -14 0
-10 -24 -45 -41 -36 -13 0
-13 -20 -21 -41 -45 -17 0
-13 -20 -21 -42 -45 -16 0
-13 -20 -23 -41 -42 -17 0
-13 -20 -23 -45 -42 -14 0
-13 -20 -24 -42 -41 -16 0
-13 -20 -24 -45 -41 -14 0
-13 -36 -21 -23 -45 -17 0
-13 -36 -21 -24 -45 -16 0
-13 -36 -41 -23 -24 -17 0
-13 -36 -42 -24 -23 -16 0
-13 -38 -23 -21 -42 -17 0
-13 -38 -23 -24 -42 -14 0
-13 -38 -41 -21 -24 -17 0
-13 -38 -45 -24 -21 -14 0
-13 -39 -24 -21 -41 -16 0
-13 -39 -24 -23 -41 -14 0
-13 -39 -42 -21 -23 -16 0
-13 -39 -45 -23 -21 -14 0
-14 -21 -20 -38 -45 -17 0
-14 -21 -20 -39 -45 -16 0
-14 -21 -23 -38 -39 -17 0
-14 -21 -24 -39 -38 -16 0
-14 -36 -20 -23 -45 -17 0
-14 -36 -20 -24 -45 -16 0
-14 -36 -38 -23 -24 -17 0
-14 -36 -39 -24 -23 -16 0
-14 -41 -23 -20 -39 -17 0
-14 -41 -38 -20 -24 -17 0
-14 -42 -24 -20 -38 -16 0
-14 -42 -39 -20 -23 -16 0
-16 -23 -20 -36 -42 -17 0
-16 -23 -21 -36 -39 -17 0
-16 -38 -20 -21 -42 -17 0
-16 -38 -36 -21 -24 -17 0
-16 -41 -21 -20 -39 -17 0
-16 -41 -36 -20 -24 -17 0
-10 -20 -37 -43 -45 -17 0
-10 -20 -37 -44 -45 -16 0
-10 -20 -38 -43 -44 -17 0
-10 -20 -38 -45 -44 -15 0
-10 -20 -39 -44 -43 -16 0
-10 -20 -39 -45 -43 -15 0
-10 -22 -37 -38 -45 -17 0
-10 -22 -37 -39 -45 -16 0
-10 -22 -43 -38 -39 -17 0
-10 -22 -43 -45 -39 -13 0
-10 -22 -44 -39 -38 -16 0
-10 -22 -44 -45 -38 -13 0
-10 -23 -38 -37 -44 -17 0
-10 -23 -38 -39 -44 -15 0
-10 -23 -43 -37 -39 -17 0
-10 -23 -43 -44 -39 -13 0
-10 -23 -45 -39 -37 -15 0
-10 -23 -45 -44 -37 -13 0
-10 -24 -39 -37 -43 -16 0
-10 -24 -39 -38 -43 -15 0
-10 -24 -44 -37 -38 -16 0
-10 -24 -44 -43 -38 -13 0
-10 -24 -45 -38 -37 -15 0
-10 -24 -45 -43 -37 -13 0
-13 -20 -22 -43 -45 -17 0
-13 -20 -22 -44 -45 -16 0
-13 -20 -23 -43 -44 -17 0
-13 -20 -23 -45 -44 -15 0
-13 -20 -24 -44 -43 -16 0
-13 -20 -24 -45 -43 -15 0
-13 -37 -22 -23 -45 -17 0
-13 -37 -22 -24 -45 -16 0
-13 -37 -43 -23 -24 -17 0
-13 -37 -44 -24 -23 -16 0
-13 -38 -23 -22 -44 -17 0
-13 -38 -23 -24 -44 -15 0
-13 -38 -43 -22 -24 -17 0
-13 -38 -45 -24 -22 -15 0
-13 -39 -24 -22 -43 -16 0
-13 -39 -24 -23 -43 -15 0
-13 -39 -44 -22 -23 -16 0
-13 -39 -45 -23 -22 -15 0
-15 -22 -20 -38 -45 -17 0
-15 -22 -20 -39 -45 -16 0
-15 -22 -23 -38 -39 -17 0
-15 -22 -24 -39 -38 -16 0
-15 -37 -20 -23 -45 -17 0
-15 -37 -20 -24 -45 -16 0
-15 -37 -38 -23 -24 -17 0
-15 -37 -39 -24 -23 -16 0
-15 -43 -23 -20 -39 -17 0
-15 -43 -38 -20 -24 -17 0
-15 -44 -24 -20 -38 -16 0
-15 -44 -39 -20 -23 -16 0
-16 -23 -20 -37 -44 -17 0
-16 -23 -22 -37 -39 -17 0
-16 -38 -20 -22 -44 -17 0
-16 -38 -37 -22 -24 -17 0
-16 -43 -22 -20 -39 -17 0
-16 -43 -37 -20 -24 -17 0
-10 -21 -40 -43 -45 -17 0
-10 -21 -40 -44 -45 -16 0
-10 -21 -41 -43 -44 -17 0
-10 -21 -41 -45 -44 -15 0
-10 -21 -42 -44 -43 -16 0
-10 -21 -42 -45 -43 -15 0
-10 -22 -40 -41 -45 -17 0
-10 -22 -40 -42 -45 -16 0
-10 -22 -43 -41 -42 -17 0
-10 -22 -43 -45 -42 -14 0
-10 -22 -44 -42 -41 -16 0
-10 -22 -44 -45 -41 -14 0
-10 -23 -41 -40 -44 -17 0
-10 -23 -41 -42 -44 -15 0
-10 -23 -43 -40 -42 -17 0
-10 -23 -43 -44 -42 -14 0
-10 -23 -45 -42 -40 -15 0
-10 -23 -45 -44 -40 -14 0
-10 -24 -42 -40 -43 -16 0
-10 -24 -42 -41 -43 -15 0
-10 -24 -44 -40 -41 -16 0
-10 -24 -44 -43 -41 -14 0
-10 -24 -45 -41 -40 -15 0
-10 -24 -45 -43 -40 -14 0
-14 -21 -22 -43 -45 -17 0
-14 -21 -22 -44 -45 -16 0
-14 -21 -23 -43 -44 -17 0
-14 -21 -23 -45 -44 -15 0
-14 -21 -24 -44 -43 -16 0
-14 -21 -24 -45 -43 -15 0
-14 -40 -22 -23 -45 -17 0
-14 -40 -22 -24 -45 -16 0
-14 -40 -43 -23 -24 -17 0
-14 -40 -44 -24 -23 -16 0
-14 -41 -23 -22 -44 -17 0
-14 -41 -23 -24 -44 -15 0
-14 -41 -43 -22 -24 -17 0
-14 -41 -45 -24 -22 -15 0
-14 -42 -24 -22 -43 -16 0
-14 -42 -24 -23 -43 -15 0
-14 -42 -44 -22 -23 -16 0
-14 -42 -45 -23 -22 -15 0
-15 -22 -21 -41 -45 -17 0
-15 -22 -21 -42 -45 -16 0
-15 -22 -23 -41 -42 -17 0
-15 -22 -24 -42 -41 -16 0
-15 -40 -21 -23 -45 -17 0
-15 -40 -21 -24 -45 -16 0
-15 -40 -41 -23 -24 -17 0
-15 -40 -42 -24 -23 -16 0
-15 -43 -23 -21 -42 -17 0
-15 -43 -41 -21 -24 -17 0
-15 -44 -24 -21 -41 -16 0
-15 -44 -42 -21 -23 -16 0
-16 -23 -21 -40 -44 -17 0
-16 -23 -22 -40 -42 -17 0
-16 -41 -21 -22 -44 -17 0
-16 -41 -40 -22 -24 -17 0
-16 -43 -22 -21 -42 -17 0
-16 -43 -40 -21 -24 -17 0
-11 -25 -31 -36 -40 -15 0
-11 -25 -31 -37 -40 -14 0
-11 -25 -32 -36 -37 -15 0
-11 -25 -32 -40 -37 -13 0
-11 -25 -33 -37 -36 -14 0
-11 -25 -33 -40 -36 -13 0
-11 -26 -31 -32 -40 -15 0
-11 -26 -31 -33 -40 -14 0
-11 -26 -36 -32 -33 -15 0
-11 -26 -36 -40 -33 -12 0
-11 -26 -37 -33 -32 -14 0
-11 -26 -37 -40 -32 -12 0
-11 -27 -32 -31 -37 -15 0
-11 -27 -32 -33 -37 -13 0
-11 -27 -36 -31 -33 -15 0
-11 -27 -36 -37 -33 -12 0
-11 -27 -40 -33 -31 -13 0
-11 -27 -40 -37 -31 -12 0
-11 -28 -33 -31 -36 -14 0
-11 -28 -33 -32 -36 -13 0
-11 -28 -37 -31 -32 -14 0
-11 -28 -37 -36 -32 -12 0
-11 -28 -40 -32 -31 -13 0
-11 -28 -40 -36 -31 -12 0
-12 -25 -26 -36 -40 -15 0
-12 -25 -26 -37 -40 -14 0
-12 -25 -27 -36 -37 -15 0
-12 -25 -27 -40 -37 -13 0
-12 -25 -28 -37 -36 -14 0
-12 -25 -28 -40 -36 -13 0
-12 -31 -26 -27 -40 -15 0
-12 -31 -26 -28 -40 -14 0
-12 -31 -36 -27 -28 -15 0
-12 -31 -37 -28 -27 -14 0
-12 -32 -27 -26 -37 -15 0
-12 -32 -27 -28 -37 -13 0
-12 -32 -36 -26 -28 -15 0
-12 -32 -40 -28 -26 -13 0
-12 -33 -28 -26 -36 -14 0
-12 -33 -28 -27 -36 -13 0
-12 -33 -37 -26 -27 -14 0
-12 -33 -40 -27 -26 -13 0
-13 -26 -25 -32 -40 -15 0
-13 -26 -25 -33 -40 -14 0
-13 -26 -27 -32 -33 -15 0
-13 -26 -28 -33 -32 -14 0
-13 -31 -25 -27 -40 -15 0
-13 -31 -25 -28 -40 -14 0
-13 -31 -32 -27 -28 -15 0
-13 -31 -33 -28 -27 -14 0
-13 -36 -27 -25 -33 -15 0
-13 -36 -32 -25 -28 -15 0
-13 -37 -28 -25 -32 -14 0
-13 -37 -33 -25 -27 -14 0
-14 -27 -25 -31 -37 -15 0
-14 -27 -26 -31 -33 -15 0
-14 -32 -25 -26 -37 -15 0
-14 -32 -31 -26 -28 -15 0
-14 -36 -26 -25 -33 -15 0
-14 -36 -31 -25 -28 -15 0
-11 -25 -31 -36 -41 -16 0
-11 -25 -31 -38 -41 -14 0
-11 -25 -32 -36 -38 -16 0
-11 -25 -32 -41 -38 -13 0
-11 -25 -34 -38 -36 -14 0
-11 -25 -34 -41 -36 -13 0
-11 -26 -31 -32 -41 -16 0
-11 -26 -31 -34 -41 -14 0
-11 -26 -36 -32 -34 -16 0
-11 -26 -36 -41 -34 -12 0
-11 -26 -38 -34 -32 -14 0
-11 -26 -38 -41 -32 -12 0
-11 -27 -32 -31 -38 -16 0
-11 -27 -32 -34 -38 -13 0
-11 -27 -36 -31 -34 -16 0
-11 -27 -36 -38 -34 -12 0
-11 -27 -41 -34 -31 -13 0
-11 -27 -41 -38 -31 -12 0
-11 -29 -34 -31 -36 -14 0
-11 -29 -34 -32 -36 -13 0
-11 -29 -38 -31 -32 -14 0
-11 -29 -38 -36 -32 -12 0
-11 -29 -41 -32 -31 -13 0
-11 -29 -41 -36 -31 -12 0
-12 -25 -26 -36 -41 -16 0
-12 -25 -26 -38 -41 -14 0
-12 -25 -27 -36 -38 -16 0
-12 -25 -27 -41 -38 -13 0
-12 -25 -29 -38 -36 -14 0
-12 -25 -29 -41 -36 -13 0
-12 -31 -26 -27 -41 -16 0
-12 -31 -26 -29 -41 -14 0
-12 -31 -36 -27 -29 -16 0
-12 -31 -38 -29 -27 -14 0
-12 -32 -27 -26 -38 -16 0
-12 -32 -27 -29 -38 -13 0
-12 -32 -36 -26 -29 -16 0
-12 -32 -41 -29 -26 -13 0
-12 -34 -29 -26 -36 -14 0
-12 -34 -29 -27 -36 -13 0
-12 -34 -38 -26 -27 -14 0
-12 -34 -41 -27 -26 -13 0
-13 -26 -25 -32 -41 -16 0
-13 -26 -25 -34 -41 -14 0
-13 -26 -27 -32 -34 -16 0
-13 -26 -29 -34 -32 -14 0
-13 -31 -25 -27 -41 -16 0
-13 -31 -25 -29 -41 -14 0
-13 -31 -32 -27 -29 -16 0
-13 -31 -34 -29 -27 -14 0
-13 -36 -27 -25 -34 -16 0
-13 -36 -32 -25 -29 -16 0
-13 -38 -29 -25 -32 -14 0
-13 -38 -34 -25 -27 -14 0
-14 -27 -25 -31 -38 -16 0
-14 -27 -26 -31 -34 -16 0
-14 -32 -25 -26 -38 -16 0
-14 -32 -31 -26 -29 -16 0
-14 -36 -26 -25 -34 -16 0
-14 -36 -31 -25 -29 -16 0
-11 -25 -31 -36 -42 -17 0
-11 -25 -31 -39 -42 -14 0
-11 -25 -32 -36 -39 -17 0
-11 -25 -32 -42 -39 -13 0
-11 -25 -35 -39 -36 -14 0
-11 -25 -35 -42 -36 -13 0
-11 -26 -31 -32 -42 -17 0
-11 -26 -31 -35 -42 -14 0
-11 -26 -36 -32 -35 -17 0
-11 -26 -36 -42 -35 -12 0
-11 -26 -39 -35 -32 -14 0
-11 -26 -39 -42 -32 -12 0
-11 -27 -32 -31 -39 -17 0
-11 -27 -32 -35 -39 -13 0
-11 -27 -36 -31 -35 -17 0
-11 -27 -36 -39 -35 -12 0
-11 -27 -42 -35 -31 -13 0
-11 -27 -42 -39 -31 -12 0
-11 -30 -35 -31 -36 -14 0
-11 -30 -35 -32 -36 -13 0
-11 -30 -39 -31 -32 -14 0
-11 -30 -39 -36 -32 -12 0
-11 -30 -42 -32 -31 -13 0
-11 -30 -42 -36 -31 -12 0
-12 -25 -26 -36 -42 -17 0
-12 -25 -26 -39 -42 -14 0
-12 -25 -27 -36 -39 -17 0
-12 -25 -27 -42 -39 -13 0
-12 -25 -30 -39 -36 -14 0
-12 -25 -30 -42 -36 -13 0
-12 -31 -26 -27 -42 -17 0
-12 -31 -26 -30 -42 -14 0
-12 -31 -36 -27 -30 -17 0
-12 -31 -39 -30 -27 -14 0
-12 -32 -27 -26 -39 -17 0
-12 -32 -27 -30 -39 -13 0
-12 -32 -36 -26 -30 -17 0
-12 -32 -42 -30 -26 -13 0
-12 -35 -30 -26 -36 -14 0
-12 -35 -30 -27 -36 -13 0
-12 -35 -39 -26 -27 -14 0
-12 -35 -42 -27 -26 -13 0
-13 -26 -25 -32 -42 -17 0
-13 -26 -25 -35 -42 -14 0
-13 -26 -27 -32 -35 -17 0
-13 -26 -30 -35 -32 -14 0
-13 -31 -25 -27 -42 -17 0
-13 -31 -25 -30 -42 -14 0
-13 -31 -32 -27 -30 -17 0
-13 -31 -35 -30 -27 -14 0
-13 -36 -27 -25 -35 -17 0
-13 -36 -32 -25 -30 -17 0
-13 -39 -30 -25 -32 -14 0
-13 -39 -35 -25 -27 -14 0
-14 -27 -25 -31 -39 -17 0
-14 -27 -26 -31 -35 -17 0
-14 -32 -25 -26 -39 -17 0
-14 -32 -31 -26 -30 -17 0
-14 -36 -26 -25 -35 -17 0
-14 -36 -31 -25 -30 -17 0
-11 -25 -31 -37 -43 -16 0
-11 -25 -31 -38 -43 -15 0
-11 -25 -33 -37 -38 -16 0
-11 -25 -33 -43 -38 -13 0
-11 -25 -34 -38 -37 -15 0
-11 -25 -34 -43 -37 -13 0
-11 -26 -31 -33 -43 -16 0
-11 -26 -31 -34 -43 -15 0
-11 -26 -37 -33 -34 -16 0
-11 -26 -37 -43 -34 -12 0
-11 -26 -38 -34 -33 -15 0
-11 -26 -38 -43 -33 -12 0
-11 -28 -33 -31 -38 -16 0
-11 -28 -33 -34 -38 -13 0
-11 -28 -37 -31 -34 -16 0
-11 -28 -37 -38 -34 -12 0
-11 -28 -43 -34 -31 -13 0
-11 -28 -43 -38 -31 -12 0
-11 -29 -34 -31 -37 -15 0
-11 -29 -34 -33 -37 -13 0
-11 -29 -38 -31 -33 -15 0
-11 -29 -38 -37 -33 -12 0
-11 -29 -43 -33 -31 -13 0
-11 -29 -43 -37 -31 -12 0
-12 -25 -26 -37 -43 -16 0
-12 -25 -26 -38 -43 -15 0
-12 -25 -28 -37 -38 -16 0
-12 -25 -28 -43 -38 -13 0
-12 -25 -29 -38 -37 -15 0
-12 -25 -29 -43 -37 -13 0
-12 -31 -26 -28 -43 -16 0
-12 -31 -26 -29 -43 -15 0
-12 -31 -37 -28 -29 -16 0
-12 -31 -38 -29 -28 -15 0
-12 -33 -28 -26 -38 -16 0
-12 -33 -28 -29 -38 -13 0
-12 -33 -37 -26 -29 -16 0
-12 -33 -43 -29 -26 -13 0
-12 -34 -29 -26 -37 -15 0
-12 -34 -29 -28 -37 -13 0
-12 -34 -38 -26 -28 -15 0
-12 -34 -43 -28 -26 -13 0
-13 -26 -25 -33 -43 -16 0
-13 -26 -25 -34 -43 -15 0
-13 -26 -28 -33 -34 -16 0
-13 -26 -29 -34 -33 -15 0
-13 -31 -25 -28 -43 -16 0
-13 -31 -25 -29 -43 -15 0
-13 -31 -33 -28 -29 -16 0
-13 -31 -34 -29 -28 -15 0
-13 -37 -28 -25 -34 -16 0
-13 -37 -33 -25 -29 -16 0
-13 -38 -29 -25 -33 -15 0
-13 -38 -34 -25 -28 -15 0
-15 -28 -25 -31 -38 -16 0
-15 -28 -26 -31 -34 -16 0
-15 -33 -25 -26 -38 -16 0
-15 -33 -31 -26 -29 -16 0
-15 -37 -26 -25 -34 -16 0
-15 -37 -31 -25 -29 -16 0
-11 -25 -31 -37 -44 -17 0
-11 -25 -31 -39 -44 -15 0
-11 -25 -33 -37 -39 -17 0
-11 -25 -33 -44 -39 -13 0
-11 -25 -35 -39 -37 -15 0
-11 -25 -35 -44 -37 -13 0
-11 -26 -31 -33 -44 -17 0
-11 -26 -31 -35 -44 -15 0
-11 -26 -37 -33 -35 -17 0
-11 -26 -37 -44 -35 -12 0
-11 -26 -39 -35 -33 -15 0
-11 -26 -39 -44 -33 -12 0
-11 -28 -33 -31 -39 -17 0
-11 -28 -33 -35 -39 -13 0
-11 -28 -37 -31 -35 -17 0
-11 -28 -37 -39 -35 -12 0
-11 -28 -44 -35 -31 -13 0
-11 -28 -44 -39 -31 -12 0
-11 -30 -35 -31 -37 -15 0
-11 -30 -35 -33 -37 -13 0
-11 -30 -39 -31 -33 -15 0
-11 -30 -39 -37 -33 -12 0
-11 -30 -44 -33 -31 -13 0
-11 -30 -44 -37 -31 -12 0
-12 -25 -26 -37 -44 -17 0
-12 -25 -26 -39 -44 -15 0
-12 -25 -28 -37 -39 -17 0
-12 -25 -28 -44 -39 -13 0
-12 -25 -30 -39 -37 -15 0
-12 -25 -30 -44 -37 -13 0
-12 -31 -26 -28 -44 -17 0
-12 -31 -26 -30 -44 -15 0
-12 -31 -37 -28 -30 -17 0
-12 -31 -39 -30 -28 -15 0
-12 -33 -28 -26 -39 -17 0
-12 -33 -28 -30 -39 -13 0
-12 -33 -37 -26 -30 -17 0
-12 -33 -44 -30 -26 -13 0
-12 -35 -30 -26 -37 -15 0
-12 -35 -30 -28 -37 -13 0
-12 -35 -39 -26 -28 -15 0
-12 -35 -44 -28 -26 -13 0
-13 -26 -25 -33 -44 -17 0
-13 -26 -25 -35 -44 -15 0
-13 -26 -28 -33 -35 -17 0
-13 -26 -30 -35 -33 -15 0
-13 -31 -25 -28 -44 -17 0
-13 -31 -25 -30 -44 -15 0
-13 -31 -33 -28 -30 -17 0
-13 -31 -35 -30 -28 -15 0
-13 -37 -28 -25 -35 -17 0
-13 -37 -33 -25 -30 -17 0
-13 -39 -30 -25 -33 -15 0
-13 -39 -35 -25 -28 -15 0
-15 -28 -25 -31 -39 -17 0
-15 -28 -26 -31 -35 -17 0
-15 -33 -25 -26 -39 -17 0
-15 -33 -31 -26 -30 -17 0
-15 -37 -26 -25 -35 -17 0
-15 -37 -31 -25 -30 -17 0
-11 -25 -31 -38 -45 -17 0
-11 -25 -31 -39 -45 -16 0
-11 -25 -34 -38 -39 -17 0
-11 -25 -34 -45 -39 -13 0
-11 -25 -35 -39 -38 -16 0
-11 -25 -35 -45 -38 -13 0
-11 -26 -31 -34 -45 -17 0
-11 -26 -31 -35 -45 -16 0
-11 -26 -38 -34 -35 -17 0
-11 -26 -38 -45 -35 -12 0
-11 -26 -39 -35 -34 -16 0
-11 -26 -39 -45 -34 -12 0
-11 -29 -34 -31 -39 -17 0
-11 -29 -34 -35 -39 -13 0
-11 -29 -38 -31 -35 -17 0
-11 -29 -38 -39 -35 -12 0
-11 -29 -45 -35 -31 -13 0
-11 -29 -45 -39 -31 -12 0
-11 -30 -35 -31 -38 -16 0
-11 -30 -35 -34 -38 -13 0
-11 -30 -39 -31 -34 -16 0
-11 -30 -39 -38 -34 -12 0
-11 -30 -45 -34 -31 -13 0
-11 -30 -45 -38 -31 -12 0
-12 -25 -26 -38 -45 -17 0
-12 -25 -26 -39 -45 -16 0
-12 -25 -29 -38 -39 -17 0
-12 -25 -29 -45 -39 -13 0
-12 -25 -30 -39 -38 -16 0
-12 -25 -30 -45 -38 -13 0
-12 -31 -26 -29 -45 -17 0
-12 -31 -26 -30 -45 -16 0
-12 -31 -38 -29 -30 -17 0
-12 -31 -39 -30 -29 -16 0
-12 -34 -29 -26 -39 -17 0
-12 -34 -29 -30 -39 -13 0
-12 -34 -38 -26 -30 -17 0
-12 -34 -45 -30 -26 -13 0
-12 -35 -30 -26 -38 -16 0
-12 -35 -30 -29 -38 -13 0
-12 -35 -39 -26 -29 -16 0
-12 -35 -45 -29 -26 -13 0
-13 -26 -25 -34 -45 -17 0
-13 -26 -25 -35 -45 -16 0
-13 -26 -29 -34 -35 -17 0
-13 -26 -30 -35 -34 -16 0
-13 -31 -25 -29 -45 -17 0
-13 -31 -25 -30 -45 -16 0
-13 -31 -34 -29 -30 -17 0
-13 -31 -35 -30 -29 -16 0
-13 -38 -29 -25 -35 -17 0
-13 -38 -34 -25 -30 -17 0
-13 -39 -30 -25 -34 -16 0
-13 -39 -35 -25 -29 -16 0
-16 -29 -25 -31 -39 -17 0
-16 -29 -26 -31 -35 -17 0
-16 -34 -25 -26 -39 -17 0
-16 -34 -31 -26 -30 -17 0
-16 -38 -26 -25 -35 -17 0
-16 -38 -31 -25 -30 -17 0
-11 -25 -32 -40 -43 -16 0
-11 -25 -32 -41 -43 -15 0
-11 -25 -33 -40 -41 -16 0
-11 -25 -33 -43 -41 -14 0
-11 -25 -34 -41 -40 -15 0
-11 -25 -34 -43 -40 -14 0
-11 -27 -32 -33 -43 -16 0
-11 -27 -32 -34 -43 -15 0
-11 -27 -40 -33 -34 -16 0
-11 -27 -40 -43 -34 -12 0
-11 -27 -41 -34 -33 -15 0
-11 -27 -41 -43 -33 -12 0
-11 -28 -33 -32 -41 -16 0
-11 -28 -33 -34 -41 -14 0
-11 -28 -40 -32 -34 -16 0
-11 -28 -40 -41 -34 -12 0
-11 -28 -43 -34 -32 -14 0
-11 -28 -43 -41 -32 -12 0
-11 -29 -34 -32 -40 -15 0
-11 -29 -34 -33 -40 -14 0
-11 -29 -41 -32 -33 -15 0
-11 -29 -41 -40 -33 -12 0
-11 -29 -43 -33 -32 -14 0
-11 -29 -43 -40 -32 -12 0
-12 -25 -27 -40 -43 -16 0
-12 -25 -27 -41 -43 -15 0
-12 -25 -28 -40 -41 -16 0
-12 -25 -28 -43 -41 -14 0
-12 -25 -29 -41 -40 -15 0
-12 -25 -29 -43 -40 -14 0
-12 -32 -27 -28 -43 -16 0
-12 -32 -27 -29 -43 -15 0
-12 -32 -40 -28 -29 -16 0
-12 -32 -41 -29 -28 -15 0
-12 -33 -28 -27 -41 -16 0
-12 -33 -28 -29 -41 -14 0
-12 -33 -40 -27 -29 -16 0
-12 -33 -43 -29 -27 -14 0
-12 -34 -29 -27 -40 -15 0
-12 -34 -29 -28 -40 -14 0
-12 -34 -41 -27 -28 -15 0
-12 -34 -43 -28 -27 -14 0
-14 -27 -25 -33 -43 -16 0
-14 -27 -25 -34 -43 -15 0
-14 -27 -28 -33 -34 -16 0
-14 -27 -29 -34 -33 -15 0
-14 -32 -25 -28 -43 -16 0
-14 -32 -25 -29 -43 -15 0
-14 -32 -33 -28 -29 -16 0
-14 -32 -34 -29 -28 -15 0
-14 -40 -28 -25 -34 -16 0
-14 -40 -33 -25 -29 -16 0
-14 -41 -29 -25 -33 -15 0
-14 -41 -34 -25 -28 -15 0
-15 -28 -25 -32 -41 -16 0
-15 -28 -27 -32 -34 -16 0
-15 -33 -25 -27 -41 -16 0
-15 -33 -32 -27 -29 -16 0
-15 -40 -27 -25 -34 -16 0
-15 -40 -32 -25 -29 -16 0
-11 -25 -32 -40 -44 -17 0
-11 -25 -32 -42 -44 -15 0
-11 -25 -33 -40 -42 -17 0
-11 -25 -33 -44 -42 -14 0
-11 -25 -35 -42 -40 -15 0
-11 -25 -35 -44 -40 -14 0
-11 -27 -32 -33 -44 -17 0
-11 -27 -32 -35 -44 -15 0
-11 -27 -40 -33 -35 -17 0
-11 -27 -40 -44 -35 -12 0
-11 -27 -42 -35 -33 -15 0
-11 -27 -42 -44 -33 -12 0
-11 -28 -33 -32 -42 -17 0
-11 -28 -33 -35 -42 -14 0
-11 -28 -40 -32 -35 -17 0
-11 -28 -40 -42 -35 -12 0
-11 -28 -44 -35 -32 -14 0
-11 -28 -44 -42 -32 -12 0
-11 -30 -35 -32 -40 -15 0
-11 -30 -35 -33 -40 -14 0
-11 -30 -42 -32 -33 -15 0
-11 -30 -42 -40 -33 -12 0
-11 -30 -44 -33 -32 -14 0
-11 -30 -44 -40 -32 -12 0
-12 -25 -27 -40 -44 -17 0
-12 -25 -27 -42 -44 -15 0
-12 -25 -28 -40 -42 -17 0
-12 -25 -28 -44 -42 -14 0
-12 -25 -30 -42 -40 -15 0
-12 -25 -30 -44 -40 -14 0
-12 -32 -27 -28 -44 -17 0
-12 -32 -27 -30 -44 -15 0
-12 -32 -40 -28 -30 -17 0
-12 -32 -42 -30 -28 -15 0
-12 -33 -28 -27 -42 -17 0
-12 -33 -28 -30 -42 -14 0
-12 -33 -40 -27 -30 -17 0
-12 -33 -44 -30 -27 -14 0
-12 -35 -30 -27 -40 -15 0
-12 -35 -30 -28 -40 -14 0
-12 -35 -42 -27 -28 -15 0
-12 -35 -44 -28 -27 -14 0
-14 -27 -25 -33 -44 -17 0
-14 -27 -25 -35 -44 -15 0
-14 -27 -28 -33 -35 -17 0
-14 -27 -30 -35 -33 -15 0
-14 -32 -25 -28 -44 -17 0
-14 -32 -25 -30 -44 -15 0
-14 -32 -33 -28 -30 -17 0
-14 -32 -35 -30 -28 -15 0
-14 -40 -28 -25 -35 -17 0
-14 -40 -33 -25 -30 -17 0
-14 -42 -30 -25 -33 -15 0
-14 -42 -35 -25 -28 -15 0
-15 -28 -25 -32 -42 -17 0
-15 -28 -27 -32 -35 -17 0
-15 -33 -25 -27 -42 -17 0
-15 -33 -32 -27 -30 -17 0
-15 -40 -27 -25 -35 -17 0
-15 -40 -32 -25 -30 -17 0
-11 -25 -32 -41 -45 -17 0
-11 -25 -32 -42 -45 -16 0
-11 -25 -34 -41 -42 -17 0
-11 -25 -34 -45 -42 -14 0
-11 -25 -35 -42 -41 -16 0
-11 -25 -35 -45 -41 -14 0
-11 -27 -32 -34 -45 -17 0
-11 -27 -32 -35 -45 -16 0
-11 -27 -41 -34 -35 -17 0
-11 -27 -41 -45 -35 -12 0
-11 -27 -42 -35 -34 -16 0
-11 -27 -42 -45 -34 -12 0
-11 -29 -34 -32 -42 -17 0
-11 -29 -34 -35 -42 -14 0
-11 -29 -41 -32 -35 -17 0
-11 -29 -41 -42 -35 -12 0
-11 -29 -45 -35 -32 -14 0
-11 -29 -45 -42 -32 -12 0
-11 -30 -35 -32 -41 -16 0
-11 -30 -35 -34 -41 -14 0
-11 -30 -42 -32 -34 -16 0
-11 -30 -42 -41 -34 -12 0
-11 -30 -45 -34 -32 -14 0
-11 -30 -45 -41 -32 -12 0
-12 -25 -27 -41 -45 -17 0
-12 -25 -27 -42 -45 -16 0
-12 -25 -29 -41 -42 -17 0
-12 -25 -29 -45 -42 -14 0
-12 -25 -30 -42 -41 -16 0
-12 -25 -30 -45 -41 -14 0
-12 -32 -27 -29 -45 -17 0
-12 -32 -27 -30 -45 -16 0
-12 -32 -41 -29 -30 -17 0
-12 -32 -42 -30 -29 -16 0
-12 -34 -29 -27 -42 -17 0
-12 -34 -29 -30 -42 -14 0
-12 -34 -41 -27 -30 -17 0
-12 -34 -45 -30 -27 -14 0
-12 -35 -30 -27 -41 -16 0
-12 -35 -30 -29 -41 -14 0
-12 -35 -42 -27 -29 -16 0
-12 -35 -45 -29 -27 -14 0
-14 -27 -25 -34 -45 -17 0
-14 -27 -25 -35 -45 -16 0
-14 -27 -29 -34 -35 -17 0
-14 -27 -30 -35 -34 -16 0
-14 -32 -25 -29 -45 -17 0
-14 -32 -25 -30 -45 -16 0
-14 -32 -34 -29 -30 -17 0
-14 -32 -35 -30 -29 -16 0
-14 -41 -29 -25 -35 -17 0
-14 -41 -34 -25 -30 -17 0
-14 -42 -30 -25 -34 -16 0
-14 -42 -35 -25 -29 -16 0
-16 -29 -25 -32 -42 -17 0
-16 -29 -27 -32 -35 -17 0
-16 -34 -25 -27 -42 -17 0
-16 -34 -32 -27 -30 -17 0
-16 -41 -27 -25 -35 -17 0
-16 -41 -32 -25 -30 -17 0
-11 -25 -33 -43 -45 -17 0
-11 -25 -33 -44 -45 -16 0
-11 -25 -34 -43 -44 -17 0
-11 -25 -34 -45 -44 -15 0
-11 -25 -35 -44 -43 -16 0
-11 -25 -35 -45 -43 -15 0
-11 -28 -33 -34 -45 -17 0
-11 -28 -33 -35 -45 -16 0
-11 -28 -43 -34 -35 -17 0
-11 -28 -43 -45 -35 -12 0
-11 -28 -44 -35 -34 -16 0
-11 -28 -44 -45 -34 -12 0
-11 -29 -34 -33 -44 -17 0
-11 -29 -34 -35 -44 -15 0
-11 -29 -43 -33 -35 -17 0
-11 -29 -43 -44 -35 -12 0
-11 -29 -45 -35 -33 -15 0
-11 -29 -45 -44 -33 -12 0
-11 -30 -35 -33 -43 -16 0
-11 -30 -35 -34 -43 -15 0
-11 -30 -44 -33 -34 -16 0
-11 -30 -44 -43 -34 -12 0
-11 -30 -45 -34 -33 -15 0
-11 -30 -45 -43 -33 -12 0
-12 -25 -28 -43 -45 -17 0
-12 -25 -28 -44 -45 -16 0
-12 -25 -29 -43 -44 -17 0
-12 -25 -29 -45 -44 -15 0
-12 -25 -30 -44 -43 -16 0
-12 -25 -30 -45 -43 -15 0
-12 -33 -28 -29 -45 -17 0
-12 -33 -28 -30 -45 -16 0
-12 -33 -43 -29 -30 -17 0
-12 -33 -44 -30 -29 -16 0
-12 -34 -29 -28 -44 -17 0
-12 -34 -29 -30 -44 -15 0
-12 -34 -43 -28 -30 -17 0
-12 -34 -45 -30 -28 -15 0
-12 -35 -30 -28 -43 -16 0
-12 -35 -30 -29 -43 -15 0
-12 -35 -44 -28 -29 -16 0
-12 -35 -45 -29 -28 -15 0
-15 -28 -25 -34 -45 -17 0
-15 -28 -25 -35 -45 -16 0
-15 -28 -29 -34 -35 -17 0
-15 -28 -30 -35 -34 -16 0
-15 -33 -25 -29 -45 -17 0
-15 -33 -25 -30 -45 -16 0
-15 -33 -34 -29 -30 -17 0
-15 -33 -35 -30 -29 -16 0
-15 -43 -29 -25 -35 -17 0
-15 -43 -34 -25 -30 -17 0
-15 -44 -30 -25 -34 -16 0
-15 -44 -35 -25 -29 -16 0
-16 -29 -25 -33 -44 -17 0
-16 -29 -28 -33 -35 -17 0
-16 -34 -25 -28 -44 -17 0
-16 -34 -33 -28 -30 -17 0
-16 -43 -28 -25 -35 -17 0
-16 -43 -33 -25 -30 -17 0
-11 -26 -36 -40 -43 -16 0
-11 -26 -36 -41 -43 -15 0
-11 -26 -37 -40 -41 -16 0
-11 -26 -37 -43 -41 -14 0
-11 -26 -38 -41 -40 -15 0
-11 -26 -38 -43 -40 -14 0
-11 -27 -36 -37 -43 -16 0
-11 -27 -36 -38 -43 -15 0
-11 -27 -40 -37 -38 -16 0
-11 -27 -40 -43 -38 -13 0
-11 -27 -41 -38 -37 -15 0
-11 -27 -41 -43 -37 -13 0
-11 -28 -37 -36 -41 -16 0
-11 -28 -37 -38 -41 -14 0
-11 -28 -40 -36 -38 -16 0
-11 -28 -40 -41 -38 -13 0
-11 -28 -43 -38 -36 -14 0
-11 -28 -43 -41 -36 -13 0
-11 -29 -38 -36 -40 -15 0
-11 -29 -38 -37 -40 -14 0
-11 -29 -41 -36 -37 -15 0
-11 -29 -41 -40 -37 -13 0
-11 -29 -43 -37 -36 -14 0
-11 -29 -43 -40 -36 -13 0
-13 -26 -27 -40 -43 -16 0
-13 -26 -27 -41 -43 -15 0
-13 -26 -28 -40 -41 -16 0
-13 -26 -28 -43 -41 -14 0
-13 -26 -29 -41 -40 -15 0
-13 -26 -29 -43 -40 -14 0
-13 -36 -27 -28 -43 -16 0
-13 -36 -27 -29 -43 -15 0
-13 -36 -40 -28 -29 -16 0
-13 -36 -41 -29 -28 -15 0
-13 -37 -28 -27 -41 -16 0
-13 -37 -28 -29 -41 -14 0
-13 -37 -40 -27 -29 -16 0
-13 -37 -43 -29 -27 -14 0
-13 -38 -29 -27 -40 -15 0
-13 -38 -29 -28 -40 -14 0
-13 -38 -41 -27 -28 -15 0
-13 -38 -43 -28 -27 -14 0
-14 -27 -26 -37 -43 -16 0
-14 -27 -26 -38 -43 -15 0
-14 -27 -28 -37 -38 -16 0
-14 -27 -29 -38 -37 -15 0
-14 -36 -26 -28 -43 -16 0
-14 -36 -26 -29 -43 -15 0
-14 -36 -37 -28 -29 -16 0
-14 -36 -38 -29 -28 -15 0
-14 -40 -28 -26 -38 -16 0
-14 -40 -37 -26 -29 -16 0
-14 -41 -29 -26 -37 -15 0
-14 -41 -38 -26 -28 -15 0
-15 -28 -26 -36 -41 -16 0
-15 -28 -27 -36 -38 -16 0
-15 -37 -26 -27 -41 -16 0
-15 -37 -36 -27 -29 -16 0
-15 -40 -27 -26 -38 -16 0
-15 -40 -36 -26 -29 -16 0
-11 -26 -36 -40 -44 -17 0
-11 -26 -36 -42 -44 -15 0
-11 -26 -37 -40 -42 -17 0
-11 -26 -37 -44 -42 -14 0
-11 -26 -39 -42 -40 -15 0
-11 -26 -39 -44 -40 -14 0
-11 -27 -36 -37 -44 -17 0
-11 -27 -36 -39 -44 -15 0
-11 -27 -40 -37 -39 -17 0
-11 -27 -40 -44 -39 -13 0
-11 -27 -42 -39 -37 -15 0
-11 -27 -42 -44 -37 -13 0
-11 -28 -37 -36 -42 -17 0
-11 -28 -37 -39 -42 -14 0
-11 -28 -40 -36 -39 -17 0
-11 -28 -40 -42 -39 -13 0
-11 -28 -44 -39 -36 -14 0
-11 -28 -44 -42 -36 -13 0
-11 -30 -39 -36 -40 -15 0
-11 -30 -39 -37 -40 -14 0
-11 -30 -42 -36 -37 -15 0
-11 -30 -42 -40 -37 -13 0
-11 -30 -44 -37 -36 -14 0
-11 -30 -44 -40 -36 -13 0
-13 -26 -27 -40 -44 -17 0
-13 -26 -27 -42 -44 -15 0
-13 -26 -28 -40 -42 -17 0
-13 -26 -28 -44 -42 -14 0
-13 -26 -30 -42 -40 -15 0
-13 -26 -30 -44 -40 -14 0
-13 -36 -27 -28 -44 -17 0
-13 -36 -27 -30 -44 -15 0
-13 -36 -40 -28 -30 -17 0
-13 -36 -42 -30 -28 -15 0
-13 -37 -28 -27 -42 -17 0
-13 -37 -28 -30 -42 -14 0
-13 -37 -40 -27 -30 -17 0
-13 -37 -44 -30 -27 -14 0
-13 -39 -30 -27 -40 -15 0
-13 -39 -30 -28 -40 -14 0
-13 -39 -42 -27 -28 -15 0
-13 -39 -44 -28 -27 -14 0
-14 -27 -26 -37 -44 -17 0
-14 -27 -26 -39 -44 -15 0
-14 -27 -28 -37 -39 -17 0
-14 -27 -30 -39 -37 -15 0
-14 -36 -26 -28 -44 -17 0
-14 -36 -26 -30 -44 -15 0
-14 -36 -37 -28 -30 -17 0
-14 -36 -39 -30 -28 -15 0
-14 -40 -28 -26 -39 -17 0
-14 -40 -37 -26 -30 -17 0
-14 -42 -30 -26 -37 -15 0
-14 -42 -39 -26 -28 -15 0
-15 -28 -26 -36 -42 -17 0
-15 -28 -27 -36 -39 -17 0
-15 -37 -26 -27 -42 -17 0
-15 -37 -36 -27 -30 -17 0
-15 -40 -27 -26 -39 -17 0
-15 -40 -36 -26 -30 -17 0
-11 -26 -36 -41 -45 -17 0
-11 -26 -36 -42 -45 -16 0
-11 -26 -38 -41 -42 -17 0
-11 -26 -38 -45 -42 -14 0
-11 -26 -39 -42 -41 -16 0
-11 -26 -39 -45 -41 -14 0
-11 -27 -36 -38 -45 -17 0
-11 -27 -36 -39 -45 -16 0
-11 -27 -41 -38 -39 -17 0
-11 -27 -41 -45 -39 -13 0
-11 -27 -42 -39 -38 -16 0
-11 -27 -42 -45 -38 -13 0
-11 -29 -38 -36 -42 -17 0
-11 -29 -38 -39 -42 -14 0
-11 -29 -41 -36 -39 -17 0
-11 -29 -41 -42 -39 -13 0
-11 -29 -45 -39 -36 -14 0
-11 -29 -45 -42 -36 -13 0
-11 -30 -39 -36 -41 -16 0
-11 -30 -39 -38 -41 -14 0
-11 -30 -42 -36 -38 -16 0
-11 -30 -42 -41 -38 -13 0
-11 -30 -45 -38 -36 -14 0
-11 -30 -45 -41 -36 -13 0
-13 -26 -27 -41 -45 -17 0
-13 -26 -27 -42 -45 -16 0
-13 -26 -29 -41 -42 -17 0
-13 -26 -29 -45 -42 -14 0
-13 -26 -30 -42 -41 -16 0
-13 -26 -30 -45 -41 -14 0
-13 -36 -27 -29 -45 -17 0
-13 -36 -27 -30 -45 -16 0
-13 -36 -41 -29 -30 -17 0
-13 -36 -42 -30 -29 -16 0
-13 -38 -29 -27 -42 -17 0
-13 -38 -29 -30 -42 -14 0
-13 -38 -41 -27 -30 -17 0
-13 -38 -45 -30 -27 -14 0
-13 -39 -30 -27 -41 -16 0
-13 -39 -30 -29 -41 -14 0
-13 -39 -42 -27 -29 -16 0
-13 -39 -45 -29 -27 -14 0
-14 -27 -26 -38 -45 -17 0
-14 -27 -26 -39 -45 -16 0
-14 -27 -29 -38 -39 -17 0
-14 -27 -30 -39 -38 -16 0
-14 -36 -26 -29 -45 -17 0
-14 -36 -26 -30 -45 -16 0
-14 -36 -38 -29 -30 -17 0
-14 -36 -39 -30 -29 -16 0
-14 -41 -29 -26 -39 -17 0
-14 -41 -38 -26 -30 -17 0
-14 -42 -30 -26 -38 -16 0
-14 -42 -39 -26 -29 -16 0
-16 -29 -26 -36 -42 -17 0
-16 -29 -27 -36 -39 -17 0
-16 -38 -26 -27 -42 -17 0
-16 -38 -36 -27 -30 -17 0
-16 -41 -27 -26 -39 -17 0
-16 -41 -36 -26 -30 -17 0
-11 -26 -37 -43 -45 -17 0
-11 -26 -37 -44 -45 -16 0
-11 -26 -38 -43 -44 -17 0
-11 -26 -38 -45 -44 -15 0
-11 -26 -39 -44 -43 -16 0
-11 -26 -39 -45 -43 -15 0
-11 -28 -37 -38 -45 -17 0
-11 -28 -37 -39 -45 -16 0
-11 -28 -43 -38 -39 -17 0
-11 -28 -43 -45 -39 -13 0
-11 -28 -44 -39 -38 -16 0
-11 -28 -44 -45 -38 -13 0
-11 -29 -38 -37 -44 -17 0
-11 -29 -38 -39 -44 -15 0
-11 -29 -43 -37 -39 -17 0
-11 -29 -43 -44 -39 -13 0
-11 -29 -45 -39 -37 -15 0
-11 -29 -45 -44 -37 -13 0
-11 -30 -39 -37 -43 -16 0
-11 -30 -39 -38 -43 -15 0
-11 -30 -44 -37 -38 -16 0
-11 -30 -44 -43 -38 -13 0
-11 -30 -45 -38 -37 -15 0
-11 -30 -45 -43 -37 -13 0
-13 -26 -28 -43 -45 -17 0
-13 -26 -28 -44 -45 -16 0
-13 -26 -29 -43 -44 -17 0
-13 -26 -29 -45 -44 -15 0
-13 -26 -30 -44 -43 -16 0
-13 -26 -30 -45 -43 -15 0
-13 -37 -28 -29 -45 -17 0
-13 -37 -28 -30 -45 -16 0
-13 -37 -43 -29 -30 -17 0
-13 -37 -44 -30 -29 -16 0
-13 -38 -29 -28 -44 -17 0
-13 -38 -29 -30 -44 -15 0
-13 -38 -43 -28 -30 -17 0
-13 -38 -45 -30 -28 -15 0
-13 -39 -30 -28 -43 -16 0
-13 -39 -30 -29 -43 -15 0
-13 -39 -44 -28 -29 -16 0
-13 -39 -45 -29 -28 -15 0
-15 -28 -26 -38 -45 -17 0
-15 -28 -26 -39 -45 -16 0
-15 -28 -29 -38 -39 -17 0
-15 -28 -30 -39 -38 -16 0
-15 -37 -26 -29 -45 -17 0
-15 -37 -26 -30 -45 -16 0
-15 -37 -38 -29 -30 -17 0
-15 -37 -39 -30 -29 -16 0
-15 -43 -29 -26 -39 -17 0
-15 -43 -38 -26 -30 -17 0
-15 -44 -30 -26 -38 -16 0
-15 -44 -39 -26 -29 -16 0
-16 -29 -26 -37 -44 -17 0
-16 -29 -28 -37 -39 -17 0
-16 -38 -26 -28 -44 -17 0
-16 -38 -37 -28 -30 -17 0
-16 -43 -28 -26 -39 -17 0
-16 -43 -37 -26 -30 -17 0
-11 -27 -40 -43 -45 -17 0
-11 -27 -40 -44 -45 -16 0
-11 -27 -41 -43 -44 -17 0
-11 -27 -41 -45 -44 -15 0
-11 -27 -42 -44 -43 -16 0
-11 -27 -42 -45 -43 -15 0
-11 -28 -40 -41 -45 -17 0
-11 -28 -40 -42 -45 -16 0
-11 -28 -43 -41 -42 -17 0
-11 -28 -43 -45 -42 -14 0
-11 -28 -44 -42 -41 -16 0
-11 -28 -44 -45 -41 -14 0
-11 -29 -41 -40 -44 -17 0
-11 -29 -41 -42 -44 -15 0
-11 -29 -43 -40 -42 -17 0
-11 -29 -43 -44 -42 -14 0
-11 -29 -45 -42 -40 -15 0
-11 -29 -45 -44 -40 -14 0
-11 -30 -42 -40 -43 -16 0
-11 -30 -42 -41 -43 -15 0
-11 -30 -44 -40 -41 -16 0
-11 -30 -44 -43 -41 -14 0
-11 -30 -45 -41 -40 -15 0
-11 -30 -45 -43 -40 -14 0
-14 -27 -28 -43 -45 -17 0
-14 -27 -28 -44 -45 -16 0
-14 -27 -29 -43 -44 -17 0
-14 -27 -29 -45 -44 -15 0
-14 -27 -30 -44 -43 -16 0
-14 -27 -30 -45 -43 -15 0
-14 -40 -28 -29 -45 -17 0
-14 -40 -28 -30 -45 -16 0
-14 -40 -43 -29 -30 -17 0
-14 -40 -44 -30 -29 -16 0
-14 -41 -29 -28 -44 -17 0
-14 -41 -29 -30 -44 -15 0
-14 -41 -43 -28 -30 -17 0
-14 -41 -45 -30 -28 -15 0
-14 -42 -30 -28 -43 -16 0
-14 -42 -30 -29 -43 -15 0
-14 -42 -44 -28 -29 -16 0
-14 -42 -45 -29 -28 -15 0
-15 -28 -27 -41 -45 -17 0
-15 -28 -27 -42 -45 -16 0
-15 -28 -29 -41 -42 -17 0
-15 -28 -30 -42 -41 -16 0
-15 -40 -27 -29 -45 -17 0
-15 -40 -27 -30 -45 -16 0
-15 -40 -41 -29 -30 -17 0
-15 -40 -42 -30 -29 -16 0
-15 -43 -29 -27 -42 -17 0
-15 -43 -41 -27 -30 -17 0
-15 -44 -30 -27 -41 -16 0
-15 -44 -42 -27 -29 -16 0
-16 -29 -27 -40 -44 -17 0
-16 -29 -28 -40 -42 -17 0
-16 -41 -27 -28 -44 -17 0
-16 -41 -40 -28 -30 -17 0
-16 -43 -28 -27 -42 -17 0
-16 -43 -40 -27 -30 -17 0
-12 -31 -36 -40 -43 -16 0
-12 -31 -36 -41 -43 -15 0
-12 -31 -37 -40 -41 -16 0
-12 -31 -37 -43 -41 -14 0
-12 -31 -38 -41 -40 -15 0
-12 -31 -38 -43 -40 -14 0
-12 -32 -36 -37 -43 -16 0
-12 -32 -36 -38 -43 -15 0
-12 -32 -40 -37 -38 -16 0
-12 -32 -40 -43 -38 -13 0
-12 -32 -41 -38 -37 -15 0
-12 -32 -41 -43 -37 -13 0
-12 -33 -37 -36 -41 -16 0
-12 -33 -37 -38 -41 -14 0
-12 -33 -40 -36 -38 -16 0
-12 -33 -40 -41 -38 -13 0
-12 -33 -43 -38 -36 -14 0
-12 -33 -43 -41 -36 -13 0
-12 -34 -38 -36 -40 -15 0
-12 -34 -38 -37 -40 -14 0
-12 -34 -41 -36 -37 -15 0
-12 -34 -41 -40 -37 -13 0
-12 -34 -43 -37 -36 -14 0
-12 -34 -43 -40 -36 -13 0
-13 -31 -32 -40 -43 -16 0
-13 -31 -32 -41 -43 -15 0
-13 -31 -33 -40 -41 -16 0
-13 -31 -33 -43 -41 -14 0
-13 -31 -34 -41 -40 -15 0
-13 -31 -34 -43 -40 -14 0
-13 -36 -32 -33 -43 -16 0
-13 -36 -32 -34 -43 -15 0
-13 -36 -40 -33 -34 -16 0
-13 -36 -41 -34 -33 -15 0
-13 -37 -33 -32 -41 -16 0
-13 -37 -33 -34 -41 -14 0
-13 -37 -40 -32 -34 -16 0
-13 -37 -43 -34 -32 -14 0
-13 -38 -34 -32 -40 -15 0
-13 -38 -34 -33 -40 -14 0
-13 -38 -41 -32 -33 -15 0
-13 -38 -43 -33 -32 -14 0
-14 -32 -31 -37 -43 -16 0
-14 -32 -31 -38 -43 -15 0
-14 -32 -33 -37 -38 -16 0
-14 -32 -34 -38 -37 -15 0
-14 -36 -31 -33 -43 -16 0
-14 -36 -31 -34 -43 -15 0
-14 -36 -37 -33 -34 -16 0
-14 -36 -38 -34 -33 -15 0
-14 -40 -33 -31 -38 -16 0
-14 -40 -37 -31 -34 -16 0
-14 -41 -34 -31 -37 -15 0
-14 -41 -38 -31 -33 -15 0
-15 -33 -31 -36 -41 -16 0
-15 -33 -32 -36 -38 -16 0
-15 -37 -31 -32 -41 -16 0
-15 -37 -36 -32 -34 -16 0
-15 -40 -32 -31 -38 -16 0
-15 -40 -36 -31 -34 -16 0
-12 -31 -36 -40 -44 -17 0
-12 -31 -36 -42 -44 -15 0
-12 -31 -37 -40 -42 -17 0
-12 -31 -37 -44 -42 -14 0
-12 -31 -39 -42 -40 -15 0
-12 -31 -39 -44 -40 -14 0
-12 -32 -36 -37 -44 -17 0
-12 -32 -36 -39 -44 -15 0
-12 -32 -40 -37 -39 -17 0
-12 -32 -40 -44 -39 -13 0
-12 -32 -42 -39 -37 -15 0
-12 -32 -42 -44 -37 -13 0
-12 -33 -37 -36 -42 -17 0
-12 -33 -37 -39 -42 -14 0
-12 -33 -40 -36 -39 -17 0
-12 -33 -40 -42 -39 -13 0
-12 -33 -44 -39 -36 -14 0
-12 -33 -44 -42 -36 -13 0
-12 -35 -39 -36 -40 -15 0
-12 -35 -39 -37 -40 -14 0
-12 -35 -42 -36 -37 -15 0
-12 -35 -42 -40 -37 -13 0
-12 -35 -44 -37 -36 -14 0
-12 -35 -44 -40 -36 -13 0
-13 -31 -32 -40 -44 -17 0
-13 -31 -32 -42 -44 -15 0
-13 -31 -33 -40 -42 -17 0
-13 -31 -33 -44 -42 -14 0
-13 -31 -35 -42 -40 -15 0
-13 -31 -35 -44 -40 -14 0
-13 -36 -32 -33 -44 -17 0
-13 -36 -32 -35 -44 -15 0
-13 -36 -40 -33 -35 -17 0
-13 -36 -42 -35 -33 -15 0
-13 -37 -33 -32 -42 -17 0
-13 -37 -33 -35 -42 -14 0
-13 -37 -40 -32 -35 -17 0
-13 -37 -44 -35 -32 -14 0
-13 -39 -35 -32 -40 -15 0
-13 -39 -35 -33 -40 -14 0
-13 -39 -42 -32 -33 -15 0
-13 -39 -44 -33 -32 -14 0
-14 -32 -31 -37 -44 -17 0
-14 -32 -31 -39 -44 -15 0
-14 -32 -33 -37 -39 -17 0
-14 -32 -35 -39 -37 -15 0
-14 -36 -31 -33 -44 -17 0
-14 -36 -31 -35 -44 -15 0
-14 -36 -37 -33 -35 -17 0
-14 -36 -39 -35 -33 -15 0
-14 -40 -33 -31 -39 -17 0
-14 -40 -37 -31 -35 -17 0
-14 -42 -35 -31 -37 -15 0
-14 -42 -39 -31 -33 -15 0
-15 -33 -31 -36 -42 -17 0
-15 -33 -32 -36 -39 -17 0
-15 -37 -31 -32 -42 -17 0
-15 -37 -36 -32 -35 -17 0
-15 -40 -32 -31 -39 -17 0
-15 -40 -36 -31 -35 -17 0
-12 -31 -36 -41 -45 -17 0
-12 -31 -36 -42 -45 -16 0
-12 -31 -38 -41 -42 -17 0
-12 -31 -38 -45 -42 -14 0
-12 -31 -39 -42 -41 -16 0
-12 -31 -39 -45 -41 -14 0
-12 -32 -36 -38 -45 -17 0
-12 -32 -36 -39 -45 -16 0
-12 -32 -41 -38 -39 -17 0
-12 -32 -41 -45 -39 -13 0
-12 -32 -42 -39 -38 -16 0
-12 -32 -42 -45 -38 -13 0
-12 -34 -38 -36 -42 -17 0
-12 -34 -38 -39 -42 -14 0
-12 -34 -41 -36 -39 -17 0
-12 -34 -41 -42 -39 -13 0
-12 -34 -45 -39 -36 -14 0
-12 -34 -45 -42 -36 -13 0
-12 -35 -39 -36 -41 -16 0
-12 -35 -39 -38 -41 -14 0
-12 -35 -42 -36 -38 -16 0
-12 -35 -42 -41 -38 -13 0
-12 -35 -45 -38 -36 -14 0
-12 -35 -45 -41 -36 -13 0
-13 -31 -32 -41 -45 -17 0
-13 -31 -32 -42 -45 -16 0
-13 -31 -34 -41 -42 -17 0
-13 -31 -34 -45 -42 -14 0
-13 -31 -35 -42 -41 -16 0
-13 -31 -35 -45 -41 -14 0
-13 -36 -32 -34 -45 -17 0
-13 -36 -32 -35 -45 -16 0
-13 -36 -41 -34 -35 -17 0
-13 -36 -42 -35 -34 -16 0
-13 -38 -34 -32 -42 -17 0
-13 -38 -34 -35 -42 -14 0
-13 -38 -41 -32 -35 -17 0
-13 -38 -45 -35 -32 -14 0
-13 -39 -35 -32 -41 -16 0
-13 -39 -35 -34 -41 -14 0
-13 -39 -42 -32 -34 -16 0
-13 -39 -45 -34 -32 -14 0
-14 -32 -31 -38 -45 -17 0
-14 -32 -31 -39 -45 -16 0
-14 -32 -34 -38 -39 -17 0
-14 -32 -35 -39 -38 -16 0
-14 -36 -31 -34 -45 -17 0
-14 -36 -31 -35 -45 -16 0
-14 -36 -38 -34 -35 -17 0
-14 -36 -39 -35 -34 -16 0
-14 -41 -34 -31 -39 -17 0
-14 -41 -38 -31 -35 -17 0
-14 -42 -35 -31 -38 -16 0
-14 -42 -39 -31 -34 -16 0
-16 -34 -31 -36 -42 -17 0
-16 -34 -32 -36 -39 -17 0
-16 -38 -31 -32 -42 -17 0
-16 -38 -36 -32 -35 -17 0
-16 -41 -32 -31 -39 -17 0
-16 -41 -36 -31 -35 -17 0
-12 -31 -37 -43 -45 -17 0
-12 -31 -37 -44 -45 -16 0
-12 -31 -38 -43 -44 -17 0
-12 -31 -38 -45 -44 -15 0
-12 -31 -39 -44 -43 -16 0
-12 -31 -39 -45 -43 -15 0
-12 -33 -37 -38 -45 -17 0
-12 -33 -37 -39 -45 -16 0
-12 -33 -43 -38 -39 -17 0
-12 -33 -43 -45 -39 -13 0
-12 -33 -44 -39 -38 -16 0
-12 -33 -44 -45 -38 -13 0
-12 -34 -38 -37 -44 -17 0
-12 -34 -38 -39 -44 -15 0
-12 -34 -43 -37 -39 -17 0
-12 -34 -43 -44 -39 -13 0
-12 -34 -45 -39 -37 -15 0
-12 -34 -45 -44 -37 -13 0
-12 -35 -39 -37 -43 -16 0
-12 -35 -39 -38 -43 -15 0
-12 -35 -44 -37 -38 -16 0
-12 -35 -44 -43 -38 -13 0
-12 -35 -45 -38 -37 -15 0
-12 -35 -45 -43 -37 -13 0
-13 -31 -33 -43 -45 -17 0
-13 -31 -33 -44 -45 -16 0
-13 -31 -34 -43 -44 -17 0
-13 -31 -34 -45 -44 -15 0
-13 -31 -35 -44 -43 -16 0
-13 -31 -35 -45 -43 -15 0
-13 -37 -33 -34 -45 -17 0
-13 -37 -33 -35 -45 -16 0
-13 -37 -43 -34 -35 -17 0
-13 -37 -44 -35 -34 -16 0
-13 -38 -34 -33 -44 -17 0
-13 -38 -34 -35 -44 -15 0
-13 -38 -43 -33 -35 -17 0
-13 -38 -45 -35 -33 -15 0
-13 -39 -35 -33 -43 -16 0
-13 -39 -35 -34 -43 -15 0
-13 -39 -44 -33 -34 -16 0
-13 -39 -45 -34 -33 -15 0
-15 -33 -31 -38 -45 -17 0
-15 -33 -31 -39 -45 -16 0
-15 -33 -34 -38 -39 -17 0
-15 -33 -35 -39 -38 -16 0
-15 -37 -31 -34 -45 -17 0
-15 -37 -31 -35 -45 -16 0
-15 -37 -38 -34 -35 -17 0
-15 -37 -39 -35 -34 -16 0
-15 -43 -34 -31 -39 -17 0
-15 -43 -38 -31 -35 -17 0
-15 -44 -35 -31 -38 -16 0
-15 -44 -39 -31 -34 -16 0
-16 -34 -31 -37 -44 -17 0
-16 -34 -33 -37 -39 -17 0
-16 -38 -31 -33 -44 -17 0
-16 -38 -37 -33 -35 -17 0
-16 -43 -33 -31 -39 -17 0
-16 -43 -37 -31 -35 -17 0
-12 -32 -40 -43 -45 -17 0
-12 -32 -40 -44 -45 -16 0
-12 -32 -41 -43 -44 -17 0
-12 -32 -41 -45 -44 -15 0
-12 -32 -42 -44 -43 -16 0
-12 -32 -42 -45 -43 -15 0
-12 -33 -40 -41 -45 -17 0
-12 -33 -40 -42 -45 -16 0
-12 -33 -43 -41 -42 -17 0
-12 -33 -43 -45 -42 -14 0
-12 -33 -44 -42 -41 -16 0
-12 -33 -44 -45 -41 -14 0
-12 -34 -41 -40 -44 -17 0
-12 -34 -41 -42 -44 -15 0
-12 -34 -43 -40 -42 -17 0
-12 -34 -43 -44 -42 -14 0
-12 -34 -45 -42 -40 -15 0
-12 -34 -45 -44 -40 -14 0
-12 -35 -42 -40 -43 -16 0
-12 -35 -42 -41 -43 -15 0
-12 -35 -44 -40 -41 -16 0
-12 -35 -44 -43 -41 -14 0
-12 -35 -45 -41 -40 -15 0
-12 -35 -45 -43 -40 -14 0
-14 -32 -33 -43 -45 -17 0
-14 -32 -33 -44 -45 -16 0
-14 -32 -34 -43 -44 -17 0
-14 -32 -34 -45 -44 -15 0
-14 -32 -35 -44 -43 -16 0
-14 -32 -35 -45 -43 -15 0
-14 -40 -33 -34 -45 -17 0
-14 -40 -33 -35 -45 -16 0
-14 -40 -43 -34 -35 -17 0
-14 -40 -44 -35 -34 -16 0
-14 -41 -34 -33 -44 -17 0
-14 -41 -34 -35 -44 -15 0
-14 -41 -43 -33 -35 -17 0
-14 -41 -45 -35 -33 -15 0
-14 -42 -35 -33 -43 -16 0
-14 -42 -35 -34 -43 -15 0
-14 -42 -44 -33 -34 -16 0
-14 -42 -45 -34 -33 -15 0
-15 -33 -32 -41 -45 -17 0
-15 -33 -32 -42 -45 -16 0
-15 -33 -34 -41 -42 -17 0
-15 -33 -35 -42 -41 -16 0
-15 -40 -32 -34 -45 -17 0
-15 -40 -32 -35 -45 -16 0
-15 -40 -41 -34 -35 -17 0
-15 -40 -42 -35 -34 -16 0
-15 -43 -34 -32 -42 -17 0
-15 -43 -41 -32 -35 -17 0
-15 -44 -35 -32 -41 -16 0
-15 -44 -42 -32 -34 -16 0
-16 -34 -32 -40 -44 -17 0
-16 -34 -33 -40 -42 -17 0
-16 -41 -32 -33 -44 -17 0
-16 -41 -40 -33 -35 -17 0
-16 -43 -33 -32 -42 -17 0
-16 -43 -40 -32 -35 -17 0
-13 -36 -40 -43 -45 -17 0
-13 -36 -40 -44 -45 -16 0
-13 -36 -41 -43 -44 -17 0
-13 -36 -41 -45 -44 -15 0
-13 -36 -42 -44 -43 -16 0
-13 -36 -42 -45 -43 -15 0
-13 -37 -40 -41 -45 -17 0
-13 -37 -40 -42 -45 -16 0
-13 -37 -43 -41 -42 -17 0
-13 -37 -43 -45 -42 -14 0
-13 -37 -44 -42 -41 -16 0
-13 -37 -44 -45 -41 -14 0
-13 -38 -41 -40 -44 -17 0
-13 -38 -41 -42 -44 -15 0
-13 -38 -43 -40 -42 -17 0
-13 -38 -43 -44 -42 -14 0
-13 -38 -45 -42 -40 -15 0
-13 -38 -45 -44 -40 -14 0
-13 -39 -42 -40 -43 -16 0
-13 -39 -42 -41 -43 -15 0
-13 -39 -44 -40 -41 -16 0
-13 -39 -44 -43 -41 -14 0
-13 -39 -45 -41 -40 -15 0
-13 -39 -45 -43 -40 -14 0
-14 -36 -37 -43 -45 -17 0
-14 -36 -37 -44 -45 -16 0
-14 -36 -38 -43 -44 -17 0
-14 -36 -38 -45 -44 -15 0
-14 -36 -39 -44 -43 -16 0
-14 -36 -39 -45 -43 -15 0
-14 -40 -37 -38 -45 -17 0
-14 -40 -37 -39 -45 -16 0
-14 -40 -43 -38 -39 -17 0
-14 -40 -44 -39 -38 -16 0
-14 -41 -38 -37 -44 -17 0
-14 -41 -38 -39 -44 -15 0
-14 -41 -43 -37 -39 -17 0
-14 -41 -45 -39 -37 -15 0
-14 -42 -39 -37 -43 -16 0
-14 -42 -39 -38 -43 -15 0
-14 -42 -44 -37 -38 -16 0
-14 -42 -45 -38 -37 -15 0
-15 -37 -36 -41 -45 -17 0
-15 -37 -36 -42 -45 -16 0
-15 -37 -38 -41 -42 -17 0
-15 -37 -39 -42 -41 -16 0
-15 -40 -36 -38 -45 -17 0
-15 -40 -36 -39 -45 -16 0
-15 -40 -41 -38 -39 -17 0
-15 -40 -42 -39 -38 -16 0
-15 -43 -38 -36 -42 -17 0
-15 -43 -41 -36 -39 -17 0
-15 -44 -39 -36 -41 -16 0
-15 -44 -42 -36 -38 -16 0
-16 -38 -36 -40 -44 -17 0
-16 -38 -37 -40 -42 -17 0
-16 -41 -36 -37 -44 -17 0
-16 -41 -40 -37 -39 -17 0
-16 -43 -37 -36 -42 -17 0
-16 -43 -40 -36 -39 -17 0
-18 -25 -31 -36 -40 -22 0
-18 -25 -31 -37 -40 -21 0
-18 -25 -32 -36 -37 -22 0
-18 -25 -32 -40 -37 -20 0
-18 -25 -33 -37 -36 -21 0
-18 -25 -33 -40 -36 -20 0
-18 -26 -31 -32 -40 -22 0
-18 -26 -31 -33 -40 -21 0
-18 -26 -36 -32 -33 -22 0
-18 -26 -36 -40 -33 -19 0
-18 -26 -37 -33 -32 -21 0
-18 -26 -37 -40 -32 -19 0
-18 -27 -32 -31 -37 -22 0
-18 -27 -32 -33 -37 -20 0
-18 -27 -36 -31 -33 -22 0
-18 -27 -36 -37 -33 -19 0
-18 -27 -40 -33 -31 -20 0
-18 -27 -40 -37 -31 -19 0
-18 -28 -33 -31 -36 -21 0
-18 -28 -33 -32 -36 -20 0
-18 -28 -37 -31 -32 -21 0
-18 -28 -37 -36 -32 -19 0
-18 -28 -40 -32 -31 -20 0
-18 -28 -40 -36 -31 -19 0
-19 -25 -26 -36 -40 -22 0
-19 -25 -26 -37 -40 -21 0
-19 -25 -27 -36 -37 -22 0
-19 -25 -27 -40 -37 -20 0
-19 -25 -28 -37 -36 -21 0
-19 -25 -28 -40 -36 -20 0
-19 -31 -26 -27 -40 -22 0
-19 -31 -26 -28 -40 -21 0
-19 -31 -36 -27 -28 -22 0
-19 -31 -37 -28 -27 -21 0
-19 -32 -27 -26 -37 -22 0
-19 -32 -27 -28 -37 -20 0
-19 -32 -36 -26 -28 -22 0
-19 -32 -40 -28 -26 -20 0
-19 -33 -28 -26 -36 -21 0
-19 -33 -28 -27 -36 -20 0
-19 -33 -37 -26 -27 -21 0
-19 -33 -40 -27 -26 -20 0
-20 -26 -25 -32 -40 -22 0
-20 -26 -25 -33 -40 -21 0
-20 -26 -27 -32 -33 -22 0
-20 -26 -28 -33 -32 -21 0
-20 -31 -25 -27 -40 -22 0
-20 -31 -25 -28 -40 -21 0
-20 -31 -32 -27 -28 -22 0
-20 -31 -33 -28 -27 -21 0
-20 -36 -27 -25 -33 -22 0
-20 -36 -32 -25 -28 -22 0
-20 -37 -28 -25 -32 -21 0
-20 -37 -33 -25 -27 -21 0
-21 -27 -25 -31 -37 -22 0
-21 -27 -26 -31 -33 -22 0
-21 -32 -25 -26 -37 -22 0
-21 -32 -31 -26 -28 -22 0
-21 -36 -26 -25 -33 -22 0
-21 -36 -31 -25 -28 -22 0
-18 -25 -31 -36 -41 -23 0
-18 -25 -31 -38 -41 -21 0
-18 -25 -32 -36 -38 -23 0
-18 -25 -32 -41 -38 -20 0
-18 -25 -34 -38 -36 -21 0
-18 -25 -34 -41 -36 -20 0
-18 -26 -31 -32 -41 -23 0
-18 -26 -31 -34 -41 -21 0
-18 -26 -36 -32 -34 -23 0
-18 -26 -36 -41 -34 -19 0
-18 -26 -38 -34 -32 -21 0
-18 -26 -38 -41 -32 -19 0
-18 -27 -32 -31 -38 -23 0
-18 -27 -32 -34 -38 -20 0
-18 -27 -36 -31 -34 -23 0
-18 -27 -36 -38 -34 -19 0
-18 -27 -41 -34 -31 -20 0
-18 -27 -41 -38 -31 -19 0
-18 -29 -34 -31 -36 -21 0
-18 -29 -34 -32 -36 -20 0
-18 -29 -38 -31 -32 -21 0
-18 -29 -38 -36 -32 -19 0
-18 -29 -41 -32 -31 -20 0
-18 -29 -41 -36 -31 -19 0
-19 -25 -26 -36 -41 -23 0
-19 -25 -26 -38 -41 -21 0
-19 -25 -27 -36 -38 -23 0
-19 -25 -27 -41 -38 -20 0
-19 -25 -29 -38 -36 -21 0
-19 -25 -29 -41 -36 -20 0
-19 -31 -26 -27 -41 -23 0
-19 -31 -26 -29 -41 -21 0
-19 -31 -36 -27 -29 -23 0
-19 -31 -38 -29 -27 -21 0
-19 -32 -27 -26 -38 -23 0
-19 -32 -27 -29 -38 -20 0
-19 -32 -36 -26 -29 -23 0
-19 -32 -41 -29 -26 -20 0
-19 -34 -29 -26 -36 -21 0
-19 -34 -29 -27 -36 -20 0
-19 -34 -38 -26 -27 -21 0
-19 -34 -41 -27 -26 -20 0
-20 -26 -25 -32 -41 -23 0
-20 -26 -25 -34 -41 -21 0
-20 -26 -27 -32 -34 -23 0
-20 -26 -29 -34 -32 -21 0
-20 -31 -25 -27 -41 -23 0
-20 -31 -25 -29 -41 -21 0
-20 -31 -32 -27 -29 -23 0
-20 -31 -34 -29 -27 -21 0
-20 -36 -27 -25 -34 -23 0
-20 -36 -32 -25 -29 -23 0
-20 -38 -29 -25 -32 -21 0
-20 -38 -34 -25 -27 -21 0
-21 -27 -25 -31 -38 -23 0
-21 -27 -26 -31 -34 -23 0
-21 -32 -25 -26 -38 -23 0
-21 -32 -31 -26 -29 -23 0
-21 -36 -26 -25 -34 -23 0
-21 -36 -31 -25 -29 -23 0
-18 -25 -31 -36 -42 -24 0
-18 -25 -31 -39 -42 -21 0
-18 -25 -32 -36 -39 -24 0
-18 -25 -32 -42 -39 -20 0
-18 -25 -35 -39 -36 -21 0
-18 -25 -35 -42 -36 -20 0
-18 -26 -31 -32 -42 -24 0
-18 -26 -31 -35 -42 -21 0
-18 -26 -36 -32 -35 -24 0
-18 -26 -36 -42 -35 -19 0
-18 -26 -39 -35 -32 -21 0
-18 -26 -39 -42 -32 -19 0
-18 -27 -32 -31 -39 -24 0
-18 -27 -32 -35 -39 -20 0
-18 -27 -36 -31 -35 -24 0
-18 -27 -36 -39 -35 -19 0
-18 -27 -42 -35 -31 -20 0
-18 -27 -42 -39 -31 -19 0
-18 -30 -35 -31 -36 -21 0
-18 -30 -35 -32 -36 -20 0
-18 -30 -39 -31 -32 -21 0
-18 -30 -39 -36 -32 -19 0
-18 -30 -42 -32 -31 -20 0
-18 -30 -42 -36 -31 -19 0
-19 -25 -26 -36 -42 -24 0
-19 -25 -26 -39 -42 -21 0
-19 -25 -27 -36 -39 -24 0
-19 -25 -27 -42 -39 -20 0
-19 -25 -30 -39 -36 -21 0
-19 -25 -30 -42 -36 -20 0
-19 -31 -26 -27 -42 -24 0
-19 -31 -26 -30 -42 -21 0
-19 -31 -36 -27 -30 -24 0
-19 -31 -39 -30 -27 -21 0
-19 -32 -27 -26 -39 -24 0
-19 -32 -27 -30 -39 -20 0
-19 -32 -36 -26 -30 -24 0
-19 -32 -42 -30 -26 -20 0
-19 -35 -30 -26 -36 -21 0
-19 -35 -30 -27 -36 -20 0
-19 -35 -39 -26 -27 -21 0
-19 -35 -42 -27 -26 -20 0
-20 -26 -25 -32 -42 -24 0
-20 -26 -25 -35 -42 -21 0
-20 -26 -27 -32 -35 -24 0
-20 -26 -30 -35 -32 -21 0
-20 -31 -25 -27 -42 -24 0
-20 -31 -25 -30 -42 -21 0
-20 -31 -32 -27 -30 -24 0
-20 -31 -35 -30 -27 -21 0
-20 -36 -27 -25 -35 -24 0
-20 -36 -32 -25 -30 -24 0
-20 -39 -30 -25 -32 -21 0
-20 -39 -35 -25 -27 -21 0
-21 -27 -25 -31 -39 -24 0
-21 -27 -26 -31 -35 -24 0
-21 -32 -25 -26 -39 -24 0
-21 -32 -31 -26 -30 -24 0
-21 -36 -26 -25 -35 -24 0
-21 -36 -31 -25 -30 -24 0
-18 -25 -31 -37 -43 -23 0
-18 -25 -31 -38 -43 -22 0
-18 -25 -33 -37 -38 -23 0
-18 -25 -33 -43 -38 -20 0
-18 -25 -34 -38 -37 -22 0
-18 -25 -34 -43 -37 -20 0
-18 -26 -31 -33 -43 -23 0
-18 -26 -31 -34 -43 -22 0
-18 -26 -37 -33 -34 -23 0
-18 -26 -37 -43 -34 -19 0
-18 -26 -38 -34 -33 -22 0
-18 -26 -38 -43 -33 -19 0
-18 -28 -33 -31 -38 -23 0
-18 -28 -33 -34 -38 -20 0
-18 -28 -37 -31 -34 -23 0
-18 -28 -37 -38 -34 -19 0
-18 -28 -43 -34 -31 -20 0
-18 -28 -43 -38 -31 -19 0
-18 -29 -34 -31 -37 -22 0
-18 -29 -34 -33 -37 -20 0
-18 -29 -38 -31 -33 -22 0
-18 -29 -38 -37 -33 -19 0
-18 -29 -43 -33 -31 -20 0
-18 -29 -43 -37 -31 -19 0
-19 -25 -26 -37 -43 -23 0
-19 -25 -26 -38 -43 -22 0
-19 -25 -28 -37 -38 -23 0
-19 -25 -28 -43 -38 -20 0
-19 -25 -29 -38 -37 -22 0
-19 -25 -29 -43 -37 -20 0
-19 -31 -26 -28 -43 -23 0
-19 -31 -26 -29 -43 -22 0
-19 -31 -37 -28 -29 -23 0
-19 -31 -38 -29 -28 -22 0
-19 -33 -28 -26 -38 -23 0
-19 -33 -28 -29 -38 -20 0
-19 -33 -37 -26 -29 -23 0
-19 -33 -43 -29 -26 -20 0
-19 -34 -29 -26 -37 -22 0
-19 -34 -29 -28 -37 -20 0
-19 -34 -38 -26 -28 -22 0
-19 -34 -43 -28 -26 -20 0
-20 -26 -25 -33 -43 -23 0
-20 -26 -25 -34 -43 -22 0
-20 -26 -28 -33 -34 -23 0
-20 -26 -29 -34 -33 -22 0
-20 -31 -25 -28 -43 -23 0
-20 -31 -25 -29 -43 -22 0
-20 -31 -33 -28 -29 -23 0
-20 -31 -34 -29 -28 -22 0
-20 -37 -28 -25 -34 -23 0
-20 -37 -33 -25 -29 -23 0
-20 -38 -29 -25 -33 -22 0
-20 -38 -34 -25 -28 -22 0
-22 -28 -25 -31 -38 -23 0
-22 -28 -26 -31 -34 -23 0
-22 -33 -25 -26 -38 -23 0
-22 -33 -31 -26 -29 -23 0
-22 -37 -26 -25 -34 -23 0
-22 -37 -31 -25 -29 -23 0
-18 -25 -31 -37 -44 -24 0
-18 -25 -31 -39 -44 -22 0
-18 -25 -33 -37 -39 -24 0
-18 -25 -33 -44 -39 -20 0
-18 -25 -35 -39 -37 -22 0
-18 -25 -35 -44 -37 -20 0
-18 -26 -31 -33 -44 -24 0
-18 -26 -31 -35 -44 -22 0
-18 -26 -37 -33 -35 -24 0
-18 -26 -37 -44 -35 -19 0
-18 -26 -39 -35 -33 -22 0
-18 -26 -39 -44 -33 -19 0
-18 -28 -33 -31 -39 -24 0
-18 -28 -33 -35 -39 -20 0
-18 -28 -37 -31 -35 -24 0
-18 -28 -37 -39 -35 -19 0
-18 -28 -44 -35 -31 -20 0
-18 -28 -44 -39 -31 -19 0
-18 -30 -35 -31 -37 -22 0
-18 -30 -35 -33 -37 -20 0
-18 -30 -39 -31 -33 -22 0
-18 -30 -39 -37 -33 -19 0
-18 -30 -44 -33 -31 -20 0
-18 -30 -44 -37 -31 -19 0
-19 -25 -26 -37 -44 -24 0
-19 -25 -26 -39 -44 -22 0
-19 -25 -28 -37 -39 -24 0
-19 -25 -28 -44 -39 -20 0
-19 -25 -30 -39 -37 -22 0
-19 -25 -30 -44 -37 -20 0
-19 -31 -26 -28 -44 -24 0
-19 -31 -26 -30 -44 -22 0
-19 -31 -37 -28 -30 -24 0
-19 -31 -39 -30 -28 -22 0
-19 -33 -28 -26 -39 -24 0
-19 -33 -28 -30 -39 -20 0
-19 -33 -37 -26 -30 -24 0
-19 -33 -44 -30 -26 -20 0
-19 -35 -30 -26 -37 -22 0
-19 -35 -30 -28 -37 -20 0
-19 -35 -39 -26 -28 -22 0
-19 -35 -44 -28 -26 -20 0
-20 -26 -25 -33 -44 -24 0
-20 -26 -25 -35 -44 -22 0
-20 -26 -28 -33 -35 -24 0
-20 -26 -30 -35 -33 -22 0
-20 -31 -25 -28 -44 -24 0
-20 -31 -25 -30 -44 -22 0
-20 -31 -33 -28 -30 -24 0
-20 -31 -35 -30 -28 -22 0
-20 -37 -28 -25 -35 -24 0
-20 -37 -33 -25 -30 -24 0
-20 -39 -30 -25 -33 -22 0
-20 -39 -35 -25 -28 -22 0
-22 -28 -25 -31 -39 -24 0
-22 -28 -26 -31 -35 -24 0
-22 -33 -25 -26 -39 -24 0
-22 -33 -31 -26 -30 -24 0
-22 -37 -26 -25 -35 -24 0
-22 -37 -31 -25 -30 -24 0
-18 -25 -31 -38 -45 -24 0
-18 -25 -31 -39 -45 -23 0
-18 -25 -34 -38 -39 -24 0
-18 -25 -34 -45 -39 -20 0
-18 -25 -35 -39 -38 -23 0
-18 -25 -35 -45 -38 -20 0
-18 -26 -31 -34 -45 -24 0
-18 -26 -31 -35 -45 -23 0
-18 -26 -38 -34 -35 -24 0
-18 -26 -38 -45 -35 -19 0
-18 -26 -39 -35 -34 -23 0
-18 -26 -39 -45 -34 -19 0
-18 -29 -34 -31 -39 -24 0
-18 -29 -34 -35 -39 -20 0
-18 -29 -38 -31 -35 -24 0
-18 -29 -38 -39 -35 -19 0
-18 -29 -45 -35 -31 -20 0
-18 -29 -45 -39 -31 -19 0
-18 -30 -35 -31 -38 -23 0
-18 -30 -35 -34 -38 -20 0
-18 -30 -39 -31 -34 -23 0
-18 -30 -39 -38 -34 -19 0
-18 -30 -45 -34 -31 -20 0
-18 -30 -45 -38 -31 -19 0
-19 -25 -26 -38 -45 -24 0
-19 -25 -26 -39 -45 -23 0
-19 -25 -29 -38 -39 -24 0
-19 -25 -29 -45 -39 -20 0
-19 -25 -30 -39 -38 -23 0
-19 -25 -30 -45 -38 -20 0
-19 -31 -26 -29 -45 -24 0
-19 -31 -26 -30 -45 -23 0
-19 -31 -38 -29 -30 -24 0
-19 -31 -39 -30 -29 -23 0
-19 -34 -29 -26 -39 -24 0
-19 -34 -29 -30 -39 -20 0
-19 -34 -38 -26 -30 -24 0
-19 -34 -45 -30 -26 -20 0
-19 -35 -30 -26 -38 -23 0
-19 -35 -30 -29 -38 -20 0
-19 -35 -39 -26 -29 -23 0
-19 -35 -45 -29 -26 -20 0
-20 -26 -25 -34 -45 -24 0
-20 -26 -25 -35 -45 -23 0
-20 -26 -29 -34 -35 -24 0
-20 -26 -30 -35 -34 -23 0
-20 -31 -25 -29 -45 -24 0
-20 -31 -25 -30 -45 -23 0
-20 -31 -34 -29 -30 -24 0
-20 -31 -35 -30 -29 -23 0
-20 -38 -29 -25 -35 -24 0
-20 -38 -34 -25 -30 -24 0
-20 -39 -30 -25 -34 -23 0
-20 -39 -35 -25 -29 -23 0
-23 -29 -25 -31 -39 -24 0
-23 -29 -26 -31 -35 -24 0
-23 -34 -25 -26 -39 -24 0
-23 -34 -31 -26 -30 -24 0
-23 -38 -26 -25 -35 -24 0
-23 -38 -31 -25 -30 -24 0
-18 -25 -32 -40 -43 -23 0
-18 -25 -32 -41 -43 -22 0
-18 -25 -33 -40 -41 -23 0
-18 -25 -33 -43 -41 -21 0
-18 -25 -34 -41 -40 -22 0
-18 -25 -34 -43 -40 -21 0
-18 -27 -32 -33 -43 -23 0
-18 -27 -32 -34 -43 -22 0
-18 -27 -40 -33 -34 -23 0
-18 -27 -40 -43 -34 -19 0
-18 -27 -41 -34 -33 -22 0
-18 -27 -41 -43 -33 -19 0
-18 -28 -33 -32 -41 -23 0
-18 -28 -33 -34 -41 -21 0
-18 -28 -40 -32 -34 -23 0
-18 -28 -40 -41 -34 -19 0
-18 -28 -43 -34 -32 -21 0
-18 -28 -43 -41 -32 -19 0
-18 -29 -34 -32 -40 -22 0
-18 -29 -34 -33 -40 -21 0
-18 -29 -41 -32 -33 -22 0
-18 -29 -41 -40 -33 -19 0
-18 -29 -43 -33 -32 -21 0
-18 -29 -43 -40 -32 -19 0
-19 -25 -27 -40 -43 -23 0
-19 -25 -27 -41 -43 -22 0
-19 -25 -28 -40 -41 -23 0
-19 -25 -28 -43 -41 -21 0
-19 -25 -29 -41 -40 -22 0
-19 -25 -29 -43 -40 -21 0
-19 -32 -27 -28 -43 -23 0
-19 -32 -27 -29 -43 -22 0
-19 -32 -40 -28 -29 -23 0
-19 -32 -41 -29 -28 -22 0
-19 -33 -28 -27 -41 -23 0
-19 -33 -28 -29 -41 -21 0
-19 -33 -40 -27 -29 -23 0
-19 -33 -43 -29 -27 -21 0
-19 -34 -29 -27 -40 -22 0
-19 -34 -29 -28 -40 -21 0
-19 -34 -41 -27 -28 -22 0
-19 -34 -43 -28 -27 -21 0
-21 -27 -25 -33 -43 -23 0
-21 -27 -25 -34 -43 -22 0
-21 -27 -28 -33 -34 -23 0
-21 -27 -29 -34 -33 -22 0
-21 -32 -25 -28 -43 -23 0
-21 -32 -25 -29 -43 -22 0
-21 -32 -33 -28 -29 -23 0
-21 -32 -34 -29 -28 -22 0
-21 -40 -28 -25 -34 -23 0
-21 -40 -33 -25 -29 -23 0
-21 -41 -29 -25 -33 -22 0
-21 -41 -34 -25 -28 -22 0
-22 -28 -25 -32 -41 -23 0
-22 -28 -27 -32 -34 -23 0
-22 -33 -25 -27 -41 -23 0
-22 -33 -32 -27 -29 -23 0
-22 -40 -27 -25 -34 -23 0
-22 -40 -32 -25 -29 -23 0
-18 -25 -32 -40 -44 -24 0
-18 -25 -32 -42 -44 -22 0
-18 -25 -33 -40 -42 -24 0
-18 -25 -33 -44 -42 -21 0
-18 -25 -35 -42 -40 -22 0
-18 -25 -35 -44 -40 -21 0
-18 -27 -32 -33 -44 -24 0
-18 -27 -32 -35 -44 -22 0
-18 -27 -40 -33 -35 -24 0
-18 -27 -40 -44 -35 -19 0
-18 -27 -42 -35 -33 -22 0
-18 -27 -42 -44 -33 -19 0
-18 -28 -33 -32 -42 -24 0
-18 -28 -33 -35 -42 -21 0
-18 -28 -40 -32 -35 -24 0
-18 -28 -40 -42 -35 -19 0
-18 -28 -44 -35 -32 -21 0
-18 -28 -44 -42 -32 -19 0
-18 -30 -35 -32 -40 -22 0
-18 -30 -35 -33 -40 -21 0
-18 -30 -42 -32 -33 -22 0
-18 -30 -42 -40 -33 -19 0
-18 -30 -44 -33 -32 -21 0
-18 -30 -44 -40 -32 -19 0
-19 -25 -27 -40 -44 -24 0
-19 -25 -27 -42 -44 -22 0
-19 -25 -28 -40 -42 -24 0
-19 -25 -28 -44 -42 -21 0
-19 -25 -30 -42 -40 -22 0
-19 -25 -30 -44 -40 -21 0
-19 -32 -27 -28 -44 -24 0
-19 -32 -27 -30 -44 -22 0
-19 -32 -40 -28 -30 -24 0
-19 -32 -42 -30 -28 -22 0
-19 -33 -28 -27 -42 -24 0
-19 -33 -28 -30 -42 -21 0
-19 -33 -40 -27 -30 -24 0
-19 -33 -44 -30 -27 -21 0
-19 -35 -30 -27 -40 -22 0
-19 -35 -30 -28 -40 -21 0
-19 -35 -42 -27 -28 -22 0
-19 -35 -44 -28 -27 -21 0
-21 -27 -25 -33 -44 -24 0
-21 -27 -25 -35 -44 -22 0
-21 -27 -28 -33 -35 -24 0
-21 -27 -30 -35 -33 -22 0
-21 -32 -25 -28 -44 -24 0
-21 -32 -25 -30 -44 -22 0
-21 -32 -33 -28 -30 -24 0
-21 -32 -35 -30 -28 -22 0
-21 -40 -28 -25 -35 -24 0
-21 -40 -33 -25 -30 -24 0
-21 -42 -30 -25 -33 -22 0
-21 -42 -35 -25 -28 -22 0
-22 -28 -25 -32 -42 -24 0
-22 -28 -27 -32 -35 -24 0
-22 -33 -25 -27 -42 -24 0
-22 -33 -32 -27 -30 -24 0
-22 -40 -27 -25 -35 -24 0
-22 -40 -32 -25 -30 -24 0
-18 -25 -32 -41 -45 -24 0
-18 -25 -32 -42 -45 -23 0
-18 -25 -34 -41 -42 -24 0
-18 -25 -34 -45 -42 -21 0
-18 -25 -35 -42 -41 -23 0
-18 -25 -35 -45 -41 -21 0
-18 -27 -32 -34 -45 -24 0
-18 -27 -32 -35 -45 -23 0
-18 -27 -41 -34 -35 -24 0
-18 -27 -41 -45 -35 -19 0
-18 -27 -42 -35 -34 -23 0
-18 -27 -42 -45 -34 -19 0
-18 -29 -34 -32 -42 -24 0
-18 -29 -34 -35 -42 -21 0
-18 -29 -41 -32 -35 -24 0
-18 -29 -41 -42 -35 -19 0
-18 -29 -45 -35 -32 -21 0
-18 -29 -45 -42 -32 -19 0
-18 -30 -35 -32 -41 -23 0
-18 -30 -35 -34 -41 -21 0
-18 -30 -42 -32 -34 -23 0
-18 -30 -42 -41 -34 -19 0
-18 -30 -45 -34 -32 -21 0
-18 -30 -45 -41 -32 -19 0
-19 -25 -27 -41 -45 -24 0
-19 -25 -27 -42 -45 -23 0
-19 -25 -29 -41 -42 -24 0
-19 -25 -29 -45 -42 -21 0
-19 -25 -30 -42 -41 -23 0
-19 -25 -30 -45 -41 -21 0
-19 -32 -27 -29 -45 -24 0
-19 -32 -27 -30 -45 -23 0
-19 -32 -41 -29 -30 -24 0
-19 -32 -42 -30 -29 -23 0
-19 -34 -29 -27 -42 -24 0
-19 -34 -29 -30 -42 -21 0
-19 -34 -41 -27 -30 -24 0
-19 -34 -45 -30 -27 -21 0
-19 -35 -30 -27 -41 -23 0
-19 -35 -30 -29 -41 -21 0
-19 -35 -42 -27 -29 -23 0
-19 -35 -45 -29 -27 -21 0
-21 -27 -25 -34 -45 -24 0
-21 -27 -25 -35 -45 -23 0
-21 -27 -29 -34 -35 -24 0
-21 -27 -30 -35 -34 -23 0
-21 -32 -25 -29 -45 -24 0
-21 -32 -25 -30 -45 -23 0
-21 -32 -34 -29 -30 -24 0
-21 -32 -35 -30 -29 -23 0
-21 -41 -29 -25 -35 -24 0
-21 -41 -34 -25 -30 -24 0
-21 -42 -30 -25 -34 -23 0
-21 -42 -35 -25 -29 -23 0
-23 -29 -25 -32 -42 -24 0
-23 -29 -27 -32 -35 -24 0
-23 -34 -25 -27 -42 -24 0
-23 -34 -32 -27 -30 -24 0
-23 -41 -27 -25 -35 -24 0
-23 -41 -32 -25 -30 -24 0
-18 -25 -33 -43 -45 -24 0
-18 -25 -33 -44 -45 -23 0
-18 -25 -34 -43 -44 -24 0
-18 -25 -34 -45 -44 -22 0
-18 -25 -35 -44 -43 -23 0
-18 -25 -35 -45 -43 -22 0
-18 -28 -33 -34 -45 -24 0
-18 -28 -33 -35 -45 -23 0
-18 -28 -43 -34 -35 -24 0
-18 -28 -43 -45 -35 -19 0
-18 -28 -44 -35 -34 -23 0
-18 -28 -44 -45 -34 -19 0
-18 -29 -34 -33 -44 -24 0
-18 -29 -34 -35 -44 -22 0
-18 -29 -43 -33 -35 -24 0
-18 -29 -43 -44 -35 -19 0
-18 -29 -45 -35 -33 -22 0
-18 -29 -45 -44 -33 -19 0
-18 -30 -35 -33 -43 -23 0
-18 -30 -35 -34 -43 -22 0
-18 -30 -44 -33 -34 -23 0
-18 -30 -44 -43 -34 -19 0
-18 -30 -45 -34 -33 -22 0
-18 -30 -45 -43 -33 -19 0
-19 -25 -28 -43 -45 -24 0
-19 -25 -28 -44 -45 -23 0
-19 -25 -29 -43 -44 -24 0
-19 -25 -29 -45 -44 -22 0
-19 -25 -30 -44 -43 -23 0
-19 -25 -30 -45 -43 -22 0
-19 -33 -28 -29 -45 -24 0
-19 -33 -28 -30 -45 -23 0
-19 -33 -43 -29 -30 -24 0
-19 -33 -44 -30 -29 -23 0
-19 -34 -29 -28 -44 -24 0
-19 -34 -29 -30 -44 -22 0
-19 -34 -43 -28 -30 -24 0
-19 -34 -45 -30 -28 -22 0
-19 -35 -30 -28 -43 -23 0
-19 -35 -30 -29 -43 -22 0
-19 -35 -44 -28 -29 -23 0
-19 -35 -45 -29 -28 -22 0
-22 -28 -25 -34 -45 -24 0
-22 -28 -25 -35 -45 -23 0
-22 -28 -29 -34 -35 -24 0
-22 -28 -30 -35 -34 -23 0
-22 -33 -25 -29 -45 -24 0
-22 -33 -25 -30 -45 -23 0
-22 -33 -34 -29 -30 -24 0
-22 -33 -35 -30 -29 -23 0
-22 -43 -29 -25 -35 -24 0
-22 -43 -34 -25 -30 -24 0
-22 -44 -30 -25 -34 -23 0
-22 -44 -35 -25 -29 -23 0
-23 -29 -25 -33 -44 -24 0
-23 -29 -28 -33 -35 -24 0
-23 -34 -25 -28 -44 -24 0
-23 -34 -33 -28 -30 -24 0
-23 -43 -28 -25 -35 -24 0
-23 -43 -33 -25 -30 -24 0
-18 -26 -36 -40 -43 -23 0
-18 -26 -36 -41 -43 -22 0
-18 -26 -37 -40 -41 -23 0
-18 -26 -37 -43 -41 -21 0
-18 -26 -38 -41 -40 -22 0
-18 -26 -38 -43 -40 -21 0
-18 -27 -36 -37 -43 -23 0
-18 -27 -36 -38 -43 -22 0
-18 -27 -40 -37 -38 -23 0
-18 -27 -40 -43 -38 -20 0
-18 -27 -41 -38 -37 -22 0
-18 -27 -41 -43 -37 -20 0
-18 -28 -37 -36 -41 -23 0
-18 -28 -37 -38 -41 -21 0
-18 -28 -40 -36 -38 -23 0
-18 -28 -40 -41 -38 -20 0
-18 -28 -43 -38 -36 -21 0
-18 -28 -43 -41 -36 -20 0
-18 -29 -38 -36 -40 -22 0
-18 -29 -38 -37 -40 -21 0
-18 -29 -41 -36 -37 -22 0
-18 -29 -41 -40 -37 -20 0
-18 -29 -43 -37 -36 -21 0
-18 -29 -43 -40 -36 -20 0
-20 -26 -27 -40 -43 -23 0
-20 -26 -27 -41 -43 -22 0
-20 -26 -28 -40 -41 -23 0
-20 -26 -28 -43 -41 -21 0
-20 -26 -29 -41 -40 -22 0
-20 -26 -29 -43 -40 -21 0
-20 -36 -27 -28 -43 -23 0
-20 -36 -27 -29 -43 -22 0
-20 -36 -40 -28 -29 -23 0
-20 -36 -41 -29 -28 -22 0
-20 -37 -28 -27 -41 -23 0
-20 -37 -28 -29 -41 -21 0
-20 -37 -40 -27 -29 -23 0
-20 -37 -43 -29 -27 -21 0
-20 -38 -29 -27 -40 -22 0
-20 -38 -29 -28 -40 -21 0
-20 -38 -41 -27 -28 -22 0
-20 -38 -43 -28 -27 -21 0
-21 -27 -26 -37 -43 -23 0
-21 -27 -26 -38 -43 -22 0
-21 -27 -28 -37 -38 -23 0
-21 -27 -29 -38 -37 -22 0
-21 -36 -26 -28 -43 -23 0
-21 -36 -26 -29 -43 -22 0
-21 -36 -37 -28 -29 -23 0
-21 -36 -38 -29 -28 -22 0
-21 -40 -28 -26 -38 -23 0
-21 -40 -37 -26 -29 -23 0
-21 -41 -29 -26 -37 -22 0
-21 -41 -38 -26 -28 -22 0
-22 -28 -26 -36 -41 -23 0
-22 -28 -27 -36 -38 -23 0
-22 -37 -26 -27 -41 -23 0
-22 -37 -36 -27 -29 -23 0
-22 -40 -27 -26 -38 -23 0
-22 -40 -36 -26 -29 -23 0
-18 -26 -36 -40 -44 -24 0
-18 -26 -36 -42 -44 -22 0
-18 -26 -37 -40 -42 -24 0
-18 -26 -37 -44 -42 -21 0
-18 -26 -39 -42 -40 -22 0
-18 -26 -39 -44 -40 -21 0
-18 -27 -36 -37 -44 -24 0
-18 -27 -36 -39 -44 -22 0
-18 -27 -40 -37 -39 -24 0
-18 -27 -40 -44 -39 -20 0
-18 -27 -42 -39 -37 -22 0
-18 -27 -42 -44 -37 -20 0
-18 -28 -37 -36 -42 -24 0
-18 -28 -37 -39 -42 -21 0
-18 -28 -40 -36 -39 -24 0
-18 -28 -40 -42 -39 -20 0
-18 -28 -44 -39 -36 -21 0
-18 -28 -44 -42 -36 -20 0
-18 -30 -39 -36 -40 -22 0
-18 -30 -39 -37 -40 -21 0
-18 -30 -42 -36 -37 -22 0
-18 -30 -42 -40 -37 -20 0
-18 -30 -44 -37 -36 -21 0
-18 -30 -44 -40 -36 -20 0
-20 -26 -27 -40 -44 -24 0
-20 -26 -27 -42 -44 -22 0
-20 -26 -28 -40 -42 -24 0
-20 -26 -28 -44 -42 -21 0
-20 -26 -30 -42 -40 -22 0
-20 -26 -30 -44 -40 -21 0
-20 -36 -27 -28 -44 -24 0
-20 -36 -27 -30 -44 -22 0
-20 -36 -40 -28 -30 -24 0
-20 -36 -42 -30 -28 -22 0
-20 -37 -28 -27 -42 -24 0
-20 -37 -28 -30 -42 -21 0
-20 -37 -40 -27 -30 -24 0
-20 -37 -44 -30 -27 -21 0
-20 -39 -30 -27 -40 -22 0
-20 -39 -30 -28 -40 -21 0
-20 -39 -42 -27 -28 -22 0
-20 -39 -44 -28 -27 -21 0
-21 -27 -26 -37 -44 -24 0
-21 -27 -26 -39 -44 -22 0
-21 -27 -28 -37 -39 -24 0
-21 -27 -30 -39 -37 -22 0
-21 -36 -26 -28 -44 -24 0
-21 -36 -26 -30 -44 -22 0
-21 -36 -37 -28 -30 -24 0
-21 -36 -39 -30 -28 -22 0
-21 -40 -28 -26 -39 -24 0
-21 -40 -37 -26 -30 -24 0
-21 -42 -30 -26 -37 -22 0
-21 -42 -39 -26 -28 -22 0
-22 -28 -26 -36 -42 -24 0
-22 -28 -27 -36 -39 -24 0
-22 -37 -26 -27 -42 -24 0
-22 -37 -36 -27 -30 -24 0
-22 -40 -27 -26 -39 -24 0
-22 -40 -36 -26 -30 -24 0
-18 -26 -36 -41 -45 -24 0
-18 -26 -36 -42 -45 -23 0
-18 -26 -38 -41 -42 -24 0
-18 -26 -38 -45 -42 -21 0
-18 -26 -39 -42 -41 -23 0
-18 -26 -39 -45 -41 -21 0
-18 -27 -36 -38 -45 -24 0
-18 -27 -36 -39 -45 -23 0
-18 -27 -41 -38 -39 -24 0
-18 -27 -41 -45 -39 -20 0
-18 -27 -42 -39 -38 -23 0
-18 -27 -42 -45 -38 -20 0
-18 -29 -38 -36 -42 -24 0
-18 -29 -38 -39 -42 -21 0
-18 -29 -41 -36 -39 -24 0
-18 -29 -41 -42 -39 -20 0
-18 -29 -45 -39 -36 -21 0
-18 -29 -45 -42 -36 -20 0
-18 -30 -39 -36 -41 -23 0
-18 -30 -39 -38 -41 -21 0
-18 -30 -42 -36 -38 -23 0
-18 -30 -42 -41 -38 -20 0
-18 -30 -45 -38 -36 -21 0
-18 -30 -45 -41 -36 -20 0
-20 -26 -27 -41 -45 -24 0
-20 -26 -27 -42 -45 -23 0
-20 -26 -29 -41 -42 -24 0
-20 -26 -29 -45 -42 -21 0
-20 -26 -30 -42 -41 -23 0
-20 -26 -30 -45 -41 -21 0
-20 -36 -27 -29 -45 -24 0
-20 -36 -27 -30 -45 -23 0
-20 -36 -41 -29 -30 -24 0
-20 -36 -42 -30 -29 -23 0
-20 -38 -29 -27 -42 -24 0
-20 -38 -29 -30 -42 -21 0
-20 -38 -41 -27 -30 -24 0
-20 -38 -45 -30 -27 -21 0
-20 -39 -30 -27 -41 -23 0
-20 -39 -30 -29 -41 -21 0
-20 -39 -42 -27 -29 -23 0
-20 -39 -45 -29 -27 -21 0
-21 -27 -26 -38 -45 -24 0
-21 -27 -26 -39 -45 -23 0
-21 -27 -29 -38 -39 -24 0
-21 -27 -30 -39 -38 -23 0
-21 -36 -26 -29 -45 -24 0
-21 -36 -26 -30 -45 -23 0
-21 -36 -38 -29 -30 -24 0
-21 -36 -39 -30 -29 -23 0
-21 -41 -29 -26 -39 -24 0
-21 -41 -38 -26 -30 -24 0
-21 -42 -30 -26 -38 -23 0
-21 -42 -39 -26 -29 -23 0
-23 -29 -26 -36 -42 -24 0
-23 -29 -27 -36 -39 -24 0
-23 -38 -26 -27 -42 -24 0
-23 -38 -36 -27 -30 -24 0
-23 -41 -27 -26 -39 -24 0
-23 -41 -36 -26 -30 -24 0
-18 -26 -37 -43 -45 -24 0
-18 -26 -37 -44 -45 -23 0
-18 -26 -38 -43 -44 -24 0
-18 -26 -38 -45 -44 -22 0
-18 -26 -39 -44 -43 -23 0
-18 -26 -39 -45 -43 -22 0
-18 -28 -37 -38 -45 -24 0
-18 -28 -37 -39 -45 -23 0
-18 -28 -43 -38 -39 -24 0
-18 -28 -43 -45 -39 -20 0
-18 -28 -44 -39 -38 -23 0
-18 -28 -44 -45 -38 -20 0
-18 -29 -38 -37 -44 -24 0
-18 -29 -38 -39 -44 -22 0
-18 -29 -43 -37 -39 -24 0
-18 -29 -43 -44 -39 -20 0
-18 -29 -45 -39 -37 -22 0
-18 -29 -45 -44 -37 -20 0
-18 -30 -39 -37 -43 -23 0
-18 -30 -39 -38 -43 -22 0
-18 -30 -44 -37 -38 -23 0
-18 -30 -44 -43 -38 -20 0
-18 -30 -45 -38 -37 -22 0
-18 -30 -45 -43 -37 -20 0
-20 -26 -28 -43 -45 -24 0
-20 -26 -28 -44 -45 -23 0
-20 -26 -29 -43 -44 -24 0
-20 -26 -29 -45 -44 -22 0
-20 -26 -30 -44 -43 -23 0
-20 -26 -30 -45 -43 -22 0
-20 -37 -28 -29 -45 -24 0
-20 -37 -28 -30 -45 -23 0
-20 -37 -43 -29 -30 -24 0
-20 -37 -44 -30 -29 -23 0
-20 -38 -29 -28 -44 -24 0
-20 -38 -29 -30 -44 -22 0
-20 -38 -43 -28 -30 -24 0
-20 -38 -45 -30 -28 -22 0
-20 -39 -30 -28 -43 -23 0
-20 -39 -30 -29 -43 -22 0
-20 -39 -44 -28 -29 -23 0
-20 -39 -45 -29 -28 -22 0
-22 -28 -26 -38 -45 -24 0
-22 -28 -26 -39 -45 -23 0
-22 -28 -29 -38 -39 -24 0
-22 -28 -30 -39 -38 -23 0
-22 -37 -26 -29 -45 -24 0
-22 -37 -26 -30 -45 -23 0
-22 -37 -38 -29 -30 -24 0
-22 -37 -39 -30 -29 -23 0
-22 -43 -29 -26 -39 -24 0
-22 -43 -38 -26 -30 -24 0
-22 -44 -30 -26 -38 -23 0
-22 -44 -39 -26 -29 -23 0
-23 -29 -26 -37 -44 -24 0
-23 -29 -28 -37 -39 -24 0
-23 -38 -26 -28 -44 -24 0
-23 -38 -37 -28 -30 -24 0
-23 -43 -28 -26 -39 -24 0
-23 -43 -37 -26 -30 -24 0
-18 -27 -40 -43 -45 -24 0
-18 -27 -40 -44 -45 -23 0
-18 -27 -41 -43 -44 -24 0
-18 -27 -41 -45 -44 -22 0
-18 -27 -42 -44 -43 -23 0
-18 -27 -42 -45 -43 -22 0
-18 -28 -40 -41 -45 -24 0
-18 -28 -40 -42 -45 -23 0
-18 -28 -43 -41 -42 -24 0
-18 -28 -43 -45 -42 -21 0
-18 -28 -44 -42 -41 -23 0
-18 -28 -44 -45 -41 -21 0
-18 -29 -41 -40 -44 -24 0
-18 -29 -41 -42 -44 -22 0
-18 -29 -43 -40 -42 -24 0
-18 -29 -43 -44 -42 -21 0
-18 -29 -45 -42 -40 -22 0
-18 -29 -45 -44 -40 -21 0
-18 -30 -42 -40 -43 -23 0
-18 -30 -42 -41 -43 -22 0
-18 -30 -44 -40 -41 -23 0
-18 -30 -44 -43 -41 -21 0
-18 -30 -45 -41 -40 -22 0
-18 -30 -45 -43 -40 -21 0
-21 -27 -28 -43 -45 -24 0
-21 -27 -28 -44 -45 -23 0
-21 -27 -29 -43 -44 -24 0
-21 -27 -29 -45 -44 -22 0
-21 -27 -30 -44 -43 -23 0
-21 -27 -30 -45 -43 -22 0
-21 -40 -28 -29 -45 -24 0
-21 -40 -28 -30 -45 -23 0
-21 -40 -43 -29 -30 -24 0
-21 -40 -44 -30 -29 -23 0
-21 -41 -29 -28 -44 -24 0
-21 -41 -29 -30 -44 -22 0
-21 -41 -43 -28 -30 -24 0
-21 -41 -45 -30 -28 -22 0
-21 -42 -30 -28 -43 -23 0
-21 -42 -30 -29 -43 -22 0
-21 -42 -44 -28 -29 -23 0
-21 -42 -45 -29 -28 -22 0
-22 -28 -27 -41 -45 -24 0
-22 -28 -27 -42 -45 -23 0
-22 -28 -29 -41 -42 -24 0
-22 -28 -30 -42 -41 -23 0
-22 -40 -27 -29 -45 -24 0
-22 -40 -27 -30 -45 -23 0
-22 -40 -41 -29 -30 -24 0
-22 -40 -42 -30 -29 -23 0
-22 -43 -29 -27 -42 -24 0
-22 -43 -41 -27 -30 -24 0
-22 -44 -30 -27 -41 -23 0
-22 -44 -42 -27 -29 -23 0
-23 -29 -27 -40 -44 -24 0
-23 -29 -28 -40 -42 -24 0
-23 -41 -27 -28 -44 -24 0
-23 -41 -40 -28 -30 -24 0
-23 -43 -28 -27 -42 -24 0
-23 -43 -40 -27 -30 -24 0
-19 -31 -36 -40 -43 -23 0
-19 -31 -36 -41 -43 -22 0
-19 -31 -37 -40 -41 -23 0
-19 -31 -37 -43 -41 -21 0
-19 -31 -38 -41 -40 -22 0
-19 -31 -38 -43 -40 -21 0
-19 -32 -36 -37 -43 -23 0
-19 -32 -36 -38 -43 -22 0
-19 -32 -40 -37 -38 -23 0
-19 -32 -40 -43 -38 -20 0
-19 -32 -41 -38 -37 -22 0
-19 -32 -41 -43 -37 -20 0
-19 -33 -37 -36 -41 -23 0
-19 -33 -37 -38 -41 -21 0
-19 -33 -40 -36 -38 -23 0
-19 -33 -40 -41 -38 -20 0
-19 -33 -43 -38 -36 -21 0
-19 -33 -43 -41 -36 -20 0
-19 -34 -38 -36 -40 -22 0
-19 -34 -38 -37 -40 -21 0
-19 -34 -41 -36 -37 -22 0
-19 -34 -41 -40 -37 -20 0
-19 -34 -43 -37 -36 -21 0
-19 -34 -43 -40 -36 -20 0
-20 -31 -32 -40 -43 -23 0
-20 -31 -32 -41 -43 -22 0
-20 -31 -33 -40 -41 -23 0
-20 -31 -33 -43 -41 -21 0
-20 -31 -34 -41 -40 -22 0
-20 -31 -34 -43 -40 -21 0
-20 -36 -32 -33 -43 -23 0
-20 -36 -32 -34 -43 -22 0
-20 -36 -40 -33 -34 -23 0
-20 -36 -41 -34 -33 -22 0
-20 -37 -33 -32 -41 -23 0
-20 -37 -33 -34 -41 -21 0
-20 -37 -40 -32 -34 -23 0
-20 -37 -43 -34 -32 -21 0
-20 -38 -34 -32 -40 -22 0
-20 -38 -34 -33 -40 -21 0
-20 -38 -41 -32 -33 -22 0
-20 -38 -43 -33 -32 -21 0
-21 -32 -31 -37 -43 -23 0
-21 -32 -31 -38 -43 -22 0
-21 -32 -33 -37 -38 -23 0
-21 -32 -34 -38 -37 -22 0
-21 -36 -31 -33 -43 -23 0
-21 -36 -31 -34 -43 -22 0
-21 -36 -37 -33 -34 -23 0
-21 -36 -38 -34 -33 -22 0
-21 -40 -33 -31 -38 -23 0
-21 -40 -37 -31 -34 -23 0
-21 -41 -34 -31 -37 -22 0
-21 -41 -38 -31 -33 -22 0
-22 -33 -31 -36 -41 -23 0
-22 -33 -32 -36 -38 -23 0
-22 -37 -31 -32 -41 -23 0
-22 -37 -36 -32 -34 -23 0
-22 -40 -32 -31 -38 -23 0
-22 -40 -36 -31 -34 -23 0
-19 -31 -36 -40 -44 -24 0
-19 -31 -36 -42 -44 -22 0
-19 -31 -37 -40 -42 -24 0
-19 -31 -37 -44 -42 -21 0
-19 -31 -39 -42 -40 -22 0
-19 -31 -39 -44 -40 -21 0
-19 -32 -36 -37 -44 -24 0
-19 -32 -36 -39 -44 -22 0
-19 -32 -40 -37 -39 -24 0
-19 -32 -40 -44 -39 -20 0
-19 -32 -42 -39 -37 -22 0
-19 -32 -42 -44 -37 -20 0
-19 -33 -37 -36 -42 -24 0
-19 -33 -37 -39 -42 -21 0
-19 -33 -40 -36 -39 -24 0
-19 -33 -40 -42 -39 -20 0
-19 -33 -44 -39 -36 -21 0
-19 -33 -44 -42 -36 -20 0
-19 -35 -39 -36 -40 -22 0
-19 -35 -39 -37 -40 -21 0
-19 -35 -42 -36 -37 -22 0
-19 -35 -42 -40 -37 -20 0
-19 -35 -44 -37 -36 -21 0
-19 -35 -44 -40 -36 -20 0
-20 -31 -32 -40 -44 -24 0
-20 -31 -32 -42 -44 -22 0
-20 -31 -33 -40 -42 -24 0
-20 -31 -33 -44 -42 -21 0
-20 -31 -35 -42 -40 -22 0
-20 -31 -35 -44 -40 -21 0
-20 -36 -32 -33 -44 -24 0
-20 -36 -32 -35 -44 -22 0
-20 -36 -40 -33 -35 -24 0
-20 -36 -42 -35 -33 -22 0
-20 -37 -33 -32 -42 -24 0
-20 -37 -33 -35 -42 -21 0
-20 -37 -40 -32 -35 -24 0
-20 -37 -44 -35 -32 -21 0
-20 -39 -35 -32 -40 -22 0
-20 -39 -35 -33 -40 -21 0
-20 -39 -42 -32 -33 -22 0
-20 -39 -44 -33 -32 -21 0
-21 -32 -31 -37 -44 -24 0
-21 -32 -31 -39 -44 -22 0
-21 -32 -33 -37 -39 -24 0
-21 -32 -35 -39 -37 -22 0
-21 -36 -31 -33 -44 -24 0
-21 -36 -31 -35 -44 -22 0
-21 -36 -37 -33 -35 -24 0
-21 -36 -39 -35 -33 -22 0
-21 -40 -33 -31 -39 -24 0
-21 -40 -37 -31 -35 -24 0
-21 -42 -35 -31 -37 -22 0
-21 -42 -39 -31 -33 -22 0
-22 -33 -31 -36 -42 -24 0
-22 -33 -32 -36 -39 -24 0
-22 -37 -31 -32 -42 -24 0
-22 -37 -36 -32 -35 -24 0
-22 -40 -32 -31 -39 -24 0
-22 -40 -36 -31 -35 -24 0
-19 -31 -36 -41 -45 -24 0
-19 -31 -36 -42 -45 -23 0
-19 -31 -38 -41 -42 -24 0
-19 -31 -38 -45 -42 -21 0
-19 -31 -39 -42 -41 -23 0
-19 -31 -39 -45 -41 -21 0
-19 -32 -36 -38 -45 -24 0
-19 -32 -36 -39 -45 -23 0
-19 -32 -41 -38 -39 -24 0
-19 -32 -41 -45 -39 -20 0
-19 -32 -42 -39 -38 -23 0
-19 -32 -42 -45 -38 -20 0
-19 -34 -38 -36 -42 -24 0
-19 -34 -38 -39 -42 -21 0
-19 -34 -41 -36 -39 -24 0
-19 -34 -41 -42 -39 -20 0
-19 -34 -45 -39 -36 -21 0
-19 -34 -45 -42 -36 -20 0
-19 -35 -39 -36 -41 -23 0
-19 -35 -39 -38 -41 -21 0
-19 -35 -42 -36 -38 -23 0
-19 -35 -42 -41 -38 -20 0
-19 -35 -45 -38 -36 -21 0
-19 -35 -45 -41 -36 -20 0
-20 -31 -32 -41 -45 -24 0
-20 -31 -32 -42 -45 -23 0
-20 -31 -34 -41 -42 -24 0
-20 -31 -34 -45 -42 -21 0
-20 -31 -35 -42 -41 -23 0
-20 -31 -35 -45 -41 -21 0
-20 -36 -32 -34 -45 -24 0
-20 -36 -32 -35 -45 -23 0
-20 -36 -41 -34 -35 -24 0
-20 -36 -42 -35 -34 -23 0
-20 -38 -34 -32 -42 -24 0
-20 -38 -34 -35 -42 -21 0
-20 -38 -41 -32 -35 -24 0
-20 -38 -45 -35 -32 -21 0
-20 -39 -35 -32 -41 -23 0
-20 -39 -35 -34 -41 -21 0
-20 -39 -42 -32 -34 -23 0
-20 -39 -45 -34 -32 -21 0
-21 -32 -31 -38 -45 -24 0
-21 -32 -31 -39 -45 -23 0
-21 -32 -34 -38 -39 -24 0
-21 -32 -35 -39 -38 -23 0
-21 -36 -31 -34 -45 -24 0
-21 -36 -31 -35 -45 -23 0
-21 -36 -38 -34 -35 -24 0
-21 -36 -39 -35 -34 -23 0
-21 -41 -34 -31 -39 -24 0
-21 -41 -38 -31 -35 -24 0
-21 -42 -35 -31 -38 -23 0
-21 -42 -39 -31 -34 -23 0
-23 -34 -31 -36 -42 -24 0
-23 -34 -32 -36 -39 -24 0
-23 -38 -31 -32 -42 -24 0
-23 -38 -36 -32 -35 -24 0
-23 -41 -32 -31 -39 -24 0
-23 -41 -36 -31 -35 -24 0
-19 -31 -37 -43 -45 -24 0
-19 -31 -37 -44 -45 -23 0
-19 -31 -38 -43 -44 -24 0
-19 -31 -38 -45 -44 -22 0
-19 -31 -39 -44 -43 -23 0
-19 -31 -39 -45 -43 -22 0
-19 -33 -37 -38 -45 -24 0
-19 -33 -37 -39 -45 -23 0
-19 -33 -43 -38 -39 -24 0
-19 -33 -43 -45 -39 -20 0
-19 -33 -44 -39 -38 -23 0
-19 -33 -44 -45 -38 -20 0
-19 -34 -38 -37 -44 -24 0
-19 -34 -38 -39 -44 -22 0
-19 -34 -43 -37 -39 -24 0
-19 -34 -43 -44 -39 -20 0
-19 -34 -45 -39 -37 -22 0
-19 -34 -45 -44 -37 -20 0
-19 -35 -39 -37 -43 -23 0
-19 -35 -39 -38 -43 -22 0
-19 -35 -44 -37 -38 -23 0
-19 -35 -44 -43 -38 -20 0
-19 -35 -45 -38 -37 -22 0
-19 -35 -45 -43 -37 -20 0
-20 -31 -33 -43 -45 -24 0
-20 -31 -33 -44 -45 -23 0
-20 -31 -34 -43 -44 -24 0
-20 -31 -34 -45 -44 -22 0
-20 -31 -35 -44 -43 -23 0
-20 -31 -35 -45 -43 -22 0
-20 -37 -33 -34 -45 -24 0
-20 -37 -33 -35 -45 -23 0
-20 -37 -43 -34 -35 -24 0
-20 -37 -44 -35 -34 -23 0
-20 -38 -34 -33 -44 -24 0
-20 -38 -34 -35 -44 -22 0
-20 -38 -43 -33 -35 -24 0
-20 -38 -45 -35 -33 -22 0
-20 -39 -35 -33 -43 -23 0
-20 -39 -35 -34 -43 -22 0
-20 -39 -44 -33 -34 -23 0
-20 -39 -45 -34 -33 -22 0
-22 -33 -31 -38 -45 -24 0
-22 -33 -31 -39 -45 -23 0
-22 -33 -34 -38 -39 -24 0
-22 -33 -35 -39 -38 -23 0
-22 -37 -31 -34 -45 -24 0
-22 -37 -31 -35 -45 -23 0
-22 -37 -38 -34 -35 -24 0
-22 -37 -39 -35 -34 -23 0
-22 -43 -34 -31 -39 -24 0
-22 -43 -38 -31 -35 -24 0
-22 -44 -35 -31 -38 -23 0
-22 -44 -39 -31 -34 -23 0
-23 -34 -31 -37 -44 -24 0
-23 -34 -33 -37 -39 -24 0
-23 -38 -31 -33 -44 -24 0
-23 -38 -37 -33 -35 -24 0
-23 -43 -33 -31 -39 -24 0
-23 -43 -37 -31 -35 -24 0
-19 -32 -40 -43 -45 -24 0
-19 -32 -40 -44 -45 -23 0
-19 -32 -41 -43 -44 -24 0
-19 -32 -41 -45 -44 -22 0
-19 -32 -42 -44 -43 -23 0
-19 -32 -42 -45 -43 -22 0
-19 -33 -40 -41 -45 -24 0
-19 -33 -40 -42 -45 -23 0
-19 -33 -43 -41 -42 -24 0
-19 -33 -43 -45 -42 -21 0
-19 -33 -44 -42 -41 -23 0
-19 -33 -44 -45 -41 -21 0
-19 -34 -41 -40 -44 -24 0
-19 -34 -41 -42 -44 -22 0
-19 -34 -43 -40 -42 -24 0
-19 -34 -43 -44 -42 -21 0
-19 -34 -45 -42 -40 -22 0
-19 -34 -45 -44 -40 -21 0
-19 -35 -42 -40 -43 -23 0
-19 -35 -42 -41 -43 -22 0
-19 -35 -44 -40 -41 -23 0
-19 -35 -44 -43 -41 -21 0
-19 -35 -45 -41 -40 -22 0
-19 -35 -45 -43 -40 -21 0
-21 -32 -33 -43 -45 -24 0
-21 -32 -33 -44 -45 -23 0
-21 -32 -34 -43 -44 -24 0
-21 -32 -34 -45 -44 -22 0
-21 -32 -35 -44 -43 -23 0
-21 -32 -35 -45 -43 -22 0
-21 -40 -33 -34 -45 -24 0
-21 -40 -33 -35 -45 -23 0
-21 -40 -43 -34 -35 -24 0
-21 -40 -44 -35 -34 -23 0
-21 -41 -34 -33 -44 -24 0
-21 -41 -34 -35 -44 -22 0
-21 -41 -43 -33 -35 -24 0
-21 -41 -45 -35 -33 -22 0
-21 -42 -35 -33 -43 -23 0
-21 -42 -35 -34 -43 -22 0
-21 -42 -44 -33 -34 -23 0
-21 -42 -45 -34 -33 -22 0
-22 -33 -32 -41 -45 -24 0
-22 -33 -32 -42 -45 -23 0
-22 -33 -34 -41 -42 -24 0
-22 -33 -35 -42 -41 -23 0
-22 -40 -32 -34 -45 -24 0
-22 -40 -32 -35 -45 -23 0
-22 -40 -41 -34 -35 -24 0
-22 -40 -42 -35 -34 -23 0
-22 -43 -34 -32 -42 -24 0
-22 -43 -41 -32 -35 -24 0
-22 -44 -35 -32 -41 -23 0
-22 -44 -42 -32 -34 -23 0
-23 -34 -32 -40 -44 -24 0
-23 -34 -33 -40 -42 -24 0
-23 -41 -32 -33 -44 -24 0
-23 -41 -40 -33 -35 -24 0
-23 -43 -33 -32 -42 -24 0
-23 -43 -40 -32 -35 -24 0
-20 -36 -40 -43 -45 -24 0
-20 -36 -40 -44 -45 -23 0
-20 -36 -41 -43 -44 -24 0
-20 -36 -41 -45 -44 -22 0
-20 -36 -42 -44 -43 -23 0
-20 -36 -42 -45 -43 -22 0
-20 -37 -40 -41 -45 -24 0
-20 -37 -40 -42 -45 -23 0
-20 -37 -43 -41 -42 -24 0
-20 -37 -43 -45 -42 -21 0
-20 -37 -44 -42 -41 -23 0
-20 -37 -44 -45 -41 -21 0
-20 -38 -41 -40 -44 -24 0
-20 -38 -41 -42 -44 -22 0
-20 -38 -43 -40 -42 -24 0
-20 -38 -43 -44 -42 -21 0
-20 -38 -45 -42 -40 -22 0
-20 -38 -45 -44 -40 -21 0
-20 -39 -42 -40 -43 -23 0
-20 -39 -42 -41 -43 -22 0
-20 -39 -44 -40 -41 -23 0
-20 -39 -44 -43 -41 -21 0
-20 -39 -45 -41 -40 -22 0
-20 -39 -45 -43 -40 -21 0
-21 -36 -37 -43 -45 -24 0
-21 -36 -37 -44 -45 -23 0
-21 -36 -38 -43 -44 -24 0
-21 -36 -38 -45 -44 -22 0
-21 -36 -39 -44 -43 -23 0
-21 -36 -39 -45 -43 -22 0
-21 -40 -37 -38 -45 -24 0
-21 -40 -37 -39 -45 -23 0
-21 -40 -43 -38 -39 -24 0
-21 -40 -44 -39 -38 -23 0
-21 -41 -38 -37 -44 -24 0
-21 -41 -38 -39 -44 -22 0
-21 -41 -43 -37 -39 -24 0
-21 -41 -45 -39 -37 -22 0
-21 -42 -39 -37 -43 -23 0
-21 -42 -39 -38 -43 -22 0
-21 -42 -44 -37 -38 -23 0
-21 -42 -45 -38 -37 -22 0
-22 -37 -36 -41 -45 -24 0
-22 -37 -36 -42 -45 -23 0
-22 -37 -38 -41 -42 -24 0
-22 -37 -39 -42 -41 -23 0
-22 -40 -36 -38 -45 -24 0
-22 -40 -36 -39 -45 -23 0
-22 -40 -41 -38 -39 -24 0
-22 -40 -42 -39 -38 -23 0
-22 -43 -38 -36 -42 -24 0
-22 -43 -41 -36 -39 -24 0
-22 -44 -39 -36 -41 -23 0
-22 -44 -42 -36 -38 -23 0
-23 -38 -36 -40 -44 -24 0
-23 -38 -37 -40 -42 -24 0
-23 -41 -36 -37 -44 -24 0
-23 -41 -40 -37 -39 -24 0
-23 -43 -37 -36 -42 -24 0
-23 -43 -40 -36 -39 -24 0
-25 -31 -36 -40 -43 -29 0
-25 -31 -36 -41 -43 -28 0
-25 -31 -37 -40 -41 -29 0
-25 -31 -37 -43 -41 -27 0
-25 -31 -38 -41 -40 -28 0
-25 -31 -38 -43 -40 -27 0
-25 -32 -36 -37 -43 -29 0
-25 -32 -36 -38 -43 -28 0
-25 -32 -40 -37 -38 -29 0
-25 -32 -40 -43 -38 -26 0
-25 -32 -41 -38 -37 -28 0
-25 -32 -41 -43 -37 -26 0
-25 -33 -37 -36 -41 -29 0
-25 -33 -37 -38 -41 -27 0
-25 -33 -40 -36 -38 -29 0
-25 -33 -40 -41 -38 -26 0
-25 -33 -43 -38 -36 -27 0
-25 -33 -43 -41 -36 -26 0
-25 -34 -38 -36 -40 -28 0
-25 -34 -38 -37 -40 -27 0
-25 -34 -41 -36 -37 -28 0
-25 -34 -41 -40 -37 -26 0
-25 -34 -43 -37 -36 -27 0
-25 -34 -43 -40 -36 -26 0
-26 -31 -32 -40 -43 -29 0
-26 -31 -32 -41 -43 -28 0
-26 -31 -33 -40 -41 -29 0
-26 -31 -33 -43 -41 -27 0
-26 -31 -34 -41 -40 -28 0
-26 -31 -34 -43 -40 -27 0
-26 -36 -32 -33 -43 -29 0
-26 -36 -32 -34 -43 -28 0
-26 -36 -40 -33 -34 -29 0
-26 -36 -41 -34 -33 -28 0
-26 -37 -33 -32 -41 -29 0
-26 -37 -33 -34 -41 -27 0
-26 -37 -40 -32 -34 -29 0
-26 -37 -43 -34 -32 -27 0
-26 -38 -34 -32 -40 -28 0
-26 -38 -34 -33 -40 -27 0
-26 -38 -41 -32 -33 -28 0
-26 -38 -43 -33 -32 -27 0
-27 -32 -31 -37 -43 -29 0
-27 -32 -31 -38 -43 -28 0
-27 -32 -33 -37 -38 -29 0
-27 -32 -34 -38 -37 -28 0
-27 -36 -31 -33 -43 -29 0
-27 -36 -31 -34 -43 -28 0
-27 -36 -37 -33 -34 -29 0
-27 -36 -38 -34 -33 -28 0
-27 -40 -33 -31 -38 -29 0
-27 -40 -37 -31 -34 -29 0
-27 -41 -34 -31 -37 -28 0
-27 -41 -38 -31 -33 -28 0
-28 -33 -31 -36 -41 -29 0
-28 -33 -32 -36 -38 -29 0
-28 -37 -31 -32 -41 -29 0
-28 -37 -36 -32 -34 -29 0
-28 -40 -32 -31 -38 -29 0
-28 -40 -36 -31 -34 -29 0
-25 -31 -36 -40 -44 -30 0
-25 -31 -36 -42 -44 -28 0
-25 -31 -37 -40 -42 -30 0
-25 -31 -37 -44 -42 -27 0
-25 -31 -39 -42 -40 -28 0
-25 -31 -39 -44 -40 -27 0
-25 -32 -36 -37 -44 -30 0
-25 -32 -36 -39 -44 -28 0
-25 -32 -40 -37 -39 -30 0
-25 -32 -40 -44 -39 -26 0
-25 -32 -42 -39 -37 -28 0
-25 -32 -42 -44 -37 -26 0
-25 -33 -37 -36 -42 -30 0
-25 -33 -37 -39 -42 -27 0
-25 -33 -40 -36 -39 -30 0
-25 -33 -40 -42 -39 -26 0
-25 -33 -44 -39 -36 -27 0
-25 -33 -44 -42 -36 -26 0
-25 -35 -39 -36 -40 -28 0
-25 -35 -39 -37 -40 -27 0
-25 -35 -42 -36 -37 -28 0
-25 -35 -42 -40 -37 -26 0
-25 -35 -44 -37 -36 -27 0
-25 -35 -44 -40 -36 -26 0
-26 -31 -32 -40 -44 -30 0
-26 -31 -32 -42 -44 -28 0
-26 -31 -33 -40 -42 -30 0
-26 -31 -33 -44 -42 -27 0
-26 -31 -35 -42 -40 -28 0
-26 -31 -35 -44 -40 -27 0
-26 -36 -32 -33 -44 -30 0
-26 -36 -32 -35 -44 -28 0
-26 -36 -40 -33 -35 -30 0
-26 -36 -42 -35 -33 -28 0
-26 -37 -33 -32 -42 -30 0
-26 -37 -33 -35 -42 -27 0
-26 -37 -40 -32 -35 -30 0
-26 -37 -44 -35 -32 -27 0
-26 -39 -35 -32 -40 -28 0
-26 -39 -35 -33 -40 -27 0
-26 -39 -42 -32 -33 -28 0
-26 -39 -44 -33 -32 -27 0
-27 -32 -31 -37 -44 -30 0
-27 -32 -31 -39 -44 -28 0
-27 -32 -33 -37 -39 -30 0
-27 -32 -35 -39 -37 -28 0
-27 -36 -31 -33 -44 -30 0
-27 -36 -31 -35 -44 -28 0
-27 -36 -37 -33 -35 -30 0
-27 -36 -39 -35 -33 -28 0
-27 -40 -33 -31 -39 -30 0
-27 -40 -37 -31 -35 -30 0
-27 -42 -35 -31 -37 -28 0
-27 -42 -39 -31 -33 -28 0
-28 -33 -31 -36 -42 -30 0
-28 -33 -32 -36 -39 -30 0
-28 -37 -31 -32 -42 -30 0
-28 -37 -36 -32 -35 -30 0
-28 -40 -32 -31 -39 -30 0
-28 -40 -36 -31 -35 -30 0
-25 -31 -36 -41 -45 -30 0
-25 -31 -36 -42 -45 -29 0
-25 -31 -38 -41 -42 -30 0
-25 -31 -38 -45 -42 -27 0
-25 -31 -39 -42 -41 -29 0
-25 -31 -39 -45 -41 -27 0
-25 -32 -36 -38 -45 -30 0
-25 -32 -36 -39 -45 -29 0
-25 -32 -41 -38 -39 -30 0
-25 -32 -41 -45 -39 -26 0
-25 -32 -42 -39 -38 -29 0
-25 -32 -42 -45 -38 -26 0
-25 -34 -38 -36 -42 -30 0
-25 -34 -38 -39 -42 -27 0
-25 -34 -41 -36 -39 -30 0
-25 -34 -41 -42 -39 -26 0
-25 -34 -45 -39 -36 -27 0
-25 -34 -45 -42 -36 -26 0
-25 -35 -39 -36 -41 -29 0
-25 -35 -39 -38 -41 -27 0
-25 -35 -42 -36 -38 -29 0
-25 -35 -42 -41 -38 -26 0
-25 -35 -45 -38 -36 -27 0
-25 -35 -45 -41 -36 -26 0
-26 -31 -32 -41 -45 -30 0
-26 -31 -32 -42 -45 -29 0
-26 -31 -34 -41 -42 -30 0
-26 -31 -34 -45 -42 -27 0
-26 -31 -35 -42 -41 -29 0
-26 -31 -35 -45 -41 -27 0
-26 -36 -32 -34 -45 -30 0
-26 -36 -32 -35 -45 -29 0
-26 -36 -41 -34 -35 -30 0
-26 -36 -42 -35 -34 -29 0
-26 -38 -34 -32 -42 -30 0
-26 -38 -34 -35 -42 -27 0
-26 -38 -41 -32 -35 -30 0
-26 -38 -45 -35 -32 -27 0
-26 -39 -35 -32 -41 -29 0
-26 -39 -35 -34 -41 -27 0
-26 -39 -42 -32 -34 -29 0
-26 -39 -45 -34 -32 -27 0
-27 -32 -31 -38 -45 -30 0
-27 -32 -31 -39 -45 -29 0
-27 -32 -34 -38 -39 -30 0
-27 -32 -35 -39 -38 -29 0
-27 -36 -31 -34 -45 -30 0
-27 -36 -31 -35 -45 -29 0
-27 -36 -38 -34 -35 -30 0
-27 -36 -39 -35 -34 -29 0
-27 -41 -34 -31 -39 -30 0
-27 -41 -38 -31 -35 -30 0
-27 -42 -35 -31 -38 -29 0
-27 -42 -39 -31 -34 -29 0
-29 -34 -31 -36 -42 -30 0
-29 -34 -32 -36 -39 -30 0
-29 -38 -31 -32 -42 -30 0
-29 -38 -36 -32 -35 -30 0
-29 -41 -32 -31 -39 -30 0
-29 -41 -36 -31 -35 -30 0
-25 -31 -37 -43 -45 -30 0
-25 -31 -37 -44 -45 -29 0
-25 -31 -38 -43 -44 -30 0
-25 -31 -38 -45 -44 -28 0
-25 -31 -39 -44 -43 -29 0
-25 -31 -39 -45 -43 -28 0
-25 -33 -37 -38 -45 -30 0
-25 -33 -37 -39 -45 -29 0
-25 -33 -43 -38 -39 -30 0
-25 -33 -43 -45 -39 -26 0
-25 -33 -44 -39 -38 -29 0
-25 -33 -44 -45 -38 -26 0
-25 -34 -38 -37 -44 -30 0
-25 -34 -38 -39 -44 -28 0
-25 -34 -43 -37 -39 -30 0
-25 -34 -43 -44 -39 -26 0
-25 -34 -45 -39 -37 -28 0
-25 -34 -45 -44 -37 -26 0
-25 -35 -39 -37 -43 -29 0
-25 -35 -39 -38 -43 -28 0
-25 -35 -44 -37 -38 -29 0
-25 -35 -44 -43 -38 -26 0
-25 -35 -45 -38 -37 -28 0
-25 -35 -45 -43 -37 -26 0
-26 -31 -33 -43 -45 -30 0
-26 -31 -33 -44 -45 -29 0
-26 -31 -34 -43 -44 -30 0
-26 -31 -34 -45 -44 -28 0
-26 -31 -35 -44 -43 -29 0
-26 -31 -35 -45 -43 -28 0
-26 -37 -33 -34 -45 -30 0
-26 -37 -33 -35 -45 -29 0
-26 -37 -43 -34 -35 -30 0
-26 -37 -44 -35 -34 -29 0
-26 -38 -34 -33 -44 -30 0
-26 -38 -34 -35 -44 -28 0
-26 -38 -43 -33 -35 -30 0
-26 -38 -45 -35 -33 -28 0
-26 -39 -35 -33 -43 -29 0
-26 -39 -35 -34 -43 -28 0
-26 -39 -44 -33 -34 -29 0
-26 -39 -45 -34 -33 -28 0
-28 -33 -31 -38 -45 -30 0
-28 -33 -31 -39 -45 -29 0
-28 -33 -34 -38 -39 -30 0
-28 -33 -35 -39 -38 -29 0
-28 -37 -31 -34 -45 -30 0
-28 -37 -31 -35 -45 -29 0
-28 -37 -38 -34 -35 -30 0
-28 -37 -39 -35 -34 -29 0
-28 -43 -34 -31 -39 -30 0
-28 -43 -38 -31 -35 -30 0
-28 -44 -35 -31 -38 -29 0
-28 -44 -39 -31 -34 -29 0
-29 -34 -31 -37 -44 -30 0
-29 -34 -33 -37 -39 -30 0
-29 -38 -31 -33 -44 -30 0
-29 -38 -37 -33 -35 -30 0
-29 -43 -33 -31 -39 -30 0
-29 -43 -37 -31 -35 -30 0
-25 -32 -40 -43 -45 -30 0
-25 -32 -40 -44 -45 -29 0
-25 -32 -41 -43 -44 -30 0
-25 -32 -41 -45 -44 -28 0
-25 -32 -42 -44 -43 -29 0
-25 -32 -42 -45 -43 -28 0
-25 -33 -40 -41 -45 -30 0
-25 -33 -40 -42 -45 -29 0
-25 -33 -43 -41 -42 -30 0
-25 -33 -43 -45 -42 -27 0
-25 -33 -44 -42 -41 -29 0
-25 -33 -44 -45 -41 -27 0
-25 -34 -41 -40 -44 -30 0
-25 -34 -41 -42 -44 -28 0
-25 -34 -43 -40 -42 -30 0
-25 -34 -43 -44 -42 -27 0
-25 -34 -45 -42 -40 -28 0
-25 -34 -45 -44 -40 -27 0
-25 -35 -42 -40 -43 -29 0
-25 -35 -42 -41 -43 -28 0
-25 -35 -44 -40 -41 -29 0
-25 -35 -44 -43 -41 -27 0
-25 -35 -45 -41 -40 -28 0
-25 -35 -45 -43 -40 -27 0
-27 -32 -33 -43 -45 -30 0
-27 -32 -33 -44 -45 -29 0
-27 -32 -34 -43 -44 -30 0
-27 -32 -34 -45 -44 -28 0
-27 -32 -35 -44 -43 -29 0
-27 -32 -35 -45 -43 -28 0
-27 -40 -33 -34 -45 -30 0
-27 -40 -33 -35 -45 -29 0
-27 -40 -43 -34 -35 -30 0
-27 -40 -44 -35 -34 -29 0
-27 -41 -34 -33 -44 -30 0
-27 -41 -34 -35 -44 -28 0
-27 -41 -43 -33 -35 -30 0
-27 -41 -45 -35 -33 -28 0
-27 -42 -35 -33 -43 -29 0
-27 -42 -35 -34 -43 -28 0
-27 -42 -44 -33 -34 -29 0
-27 -42 -45 -34 -33 -28 0
-28 -33 -32 -41 -45 -30 0
-28 -33 -32 -42 -45 -29 0
-28 -33 -34 -41 -42 -30 0
-28 -33 -35 -42 -41 -29 0
-28 -40 -32 -34 -45 -30 0
-28 -40 -32 -35 -45 -29 0
-28 -40 -41 -34 -35 -30 0
-28 -40 -42 -35 -34 -29 0
-28 -43 -34 -32 -42 -30 0
-28 -43 -41 -32 -35 -30 0
-28 -44 -35 -32 -41 -29 0
-28 -44 -42 -32 -34 -29 0
-29 -34 -32 -40 -44 -30 0
-29 -34 -33 -40 -42 -30 0
-29 -41 -32 -33 -44 -30 0
-29 -41 -40 -33 -35 -30 0
-29 -43 -33 -32 -42 -30 0
-29 -43 -40 -32 -35 -30 0
-26 -36 -40 -43 -45 -30 0
-26 -36 -40 -44 -45 -29 0
-26 -36 -41 -43 -44 -30 0
-26 -36 -41 -45 -44 -28 0
-26 -36 -42 -44 -43 -29 0
-26 -36 -42 -45 -43 -28 0
-26 -37 -40 -41 -45 -30 0
-26 -37 -40 -42 -45 -29 0
-26 -37 -43 -41 -42 -30 0
-26 -37 -43 -45 -42 -27 0
-26 -37 -44 -42 -41 -29 0
-26 -37 -44 -45 -41 -27 0
-26 -38 -41 -40 -44 -30 0
-26 -38 -41 -42 -44 -28 0
-26 -38 -43 -40 -42 -30 0
-26 -38 -43 -44 -42 -27 0
-26 -38 -45 -42 -40 -28 0
-26 -38 -45 -44 -40 -27 0
-26 -39 -42 -40 -43 -29 0
-26 -39 -42 -41 -43 -28 0
-26 -39 -44 -40 -41 -29 0
-26 -39 -44 -43 -41 -27 0
-26 -39 -45 -41 -40 -28 0
-26 -39 -45 -43 -40 -27 0
-27 -36 -37 -43 -45 -30 0
-27 -36 -37 -44 -45 -29 0
-27 -36 -38 -43 -44 -30 0
-27 -36 -38 -45 -44 -28 0
-27 -36 -39 -44 -43 -29 0
-27 -36 -39 -45 -43 -28 0
-27 -40 -37 -38 -45 -30 0
-27 -40 -37 -39 -45 -29 0
-27 -40 -43 -38 -39 -30 0
-27 -40 -44 -39 -38 -29 0
-27 -41 -38 -37 -44 -30 0
-27 -41 -38 -39 -44 -28 0
-27 -41 -43 -37 -39 -30 0
-27 -41 -45 -39 -37 -28 0
-27 -42 -39 -37 -43 -29 0
-27 -42 -39 -38 -43 -28 0
-27 -42 -44 -37 -38 -29 0
-27 -42 -45 -38 -37 -28 0
-28 -37 -36 -41 -45 -30 0
-28 -37 -36 -42 -45 -29 0
-28 -37 -38 -41 -42 -30 0
-28 -37 -39 -42 -41 -29 0
-28 -40 -36 -38 -45 -30 0
-28 -40 -36 -39 -45 -29 0
-28 -40 -41 -38 -39 -30 0
-28 -40 -42 -39 -38 -29 0
-28 -43 -38 -36 -42 -30 0
-28 -43 -41 -36 -39 -30 0
-28 -44 -39 -36 -41 -29 0
-28 -44 -42 -36 -38 -29 0
-29 -38 -36 -40 -44 -30 0
-29 -38 -37 -40 -42 -30 0
-29 -41 -36 -37 -44 -30 0
-29 -41 -40 -37 -39 -30 0
-29 -43 -37 -36 -42 -30 0
-29 -43 -40 -36 -39 -30 0
-31 -36 -40 -43 -45 -35 0
-31 -36 -40 -44 -45 -34 0
-31 -36 -41 -43 -44 -35 0
-31 -36 -41 -45 -44 -33 0
-31 -36 -42 -44 -43 -34 0
-31 -36 -42 -45 -43 -33 0
-31 -37 -40 -41 -45 -35 0
-31 -37 -40 -42 -45 -34 0
-31 -37 -43 -41 -42 -35 0
-31 -37 -43 -45 -42 -32 0
-31 -37 -44 -42 -41 -34 0
-31 -37 -44 -45 -41 -32 0
-31 -38 -41 -40 -44 -35 0
-31 -38 -41 -42 -44 -33 0
-31 -38 -43 -40 -42 -35 0
-31 -38 -43 -44 -42 -32 0
-31 -38 -45 -42 -40 -33 0
-31 -38 -45 -44 -40 -32 0
-31 -39 -42 -40 -43 -34 0
-31 -39 -42 -41 -43 -33 0
-31 -39 -44 -40 -41 -34 0
-31 -39 -44 -43 -41 -32 0
-31 -39 -45 -41 -40 -33 0
-31 -39 -45 -43 -40 -32 0
-32 -36 -37 -43 -45 -35 0
-32 -36 -37 -44 -45 -34 0
-32 -36 -38 -43 -44 -35 0
-32 -36 -38 -45 -44 -33 0
-32 -36 -39 -44 -43 -34 0
-32 -36 -39 -45 -43 -33 0
-32 -40 -37 -38 -45 -35 0
-32 -40 -37 -39 -45 -34 0
-32 -40 -43 -38 -39 -35 0
-32 -40 -44 -39 -38 -34 0
-32 -41 -38 -37 -44 -35 0
-32 -41 -38 -39 -44 -33 0
-32 -41 -43 -37 -39 -35 0
-32 -41 -45 -39 -37 -33 0
-32 -42 -39 -37 -43 -34 0
-32 -42 -39 -38 -43 -33 0
-32 -42 -44 -37 -38 -34 0
-32 -42 -45 -38 -37 -33 0
-33 -37 -36 -41 -45 -35 0
-33 -37 -36 -42 -45 -34 0
-33 -37 -38 -41 -42 -35 0
-33 -37 -39 -42 -41 -34 0
-33 -40 -36 -38 -45 -35 0
-33 -40 -36 -39 -45 -34 0
-33 -40 -41 -38 -39 -35 0
-33 -40 -42 -39 -38 -34 0
-33 -43 -38 -36 -42 -35 0
-33 -43 -41 -36 -39 -35 0
-33 -44 -39 -36 -41 -34 0
-33 -44 -42 -36 -38 -34 0
-34 -38 -36 -40 -44 -35 0
-34 -38 -37 -40 -42 -35 0
-34 -41 -36 -37 -44 -35 0
-34 -41 -40 -37 -39 -35 0
-34 -43 -37 -36 -42 -35 0
-34 -43 -40 -36 -39 -35 0
-1 -2 -3 -10 -11 -18 0
-1 -2 -4 -10 -12 -19 0
-1 -2 -5 -10 -13 -20 0
-1 -2 -6 -10 -14 -21 0
-1 -2 -7 -10 -15 -22 0
-1 -2 -8 -10 -16 -23 0
-1 -2 -9 -10 -17 -24 0
-1 -3 -4 -11 -12 -25 0
-1 -3 -5 -11 -13 -26 0
-1 -3 -6 -11 -14 -27 0
-1 -3 -7 -11 -15 -28 0
-1 -3 -8 -11 -16 -29 0
-1 -3 -9 -11 -17 -30 0
-1 -4 -5 -12 -13 -31 0
-1 -4 -6 -12 -14 -32 0
-1 -4 -7 -12 -15 -33 0
-1 -4 -8 -12 -16 -34 0
-1 -4 -9 -12 -17 -35 0
-1 -5 -6 -13 -14 -36 0
-1 -5 -7 -13 -15 -37 0
-1 -5 -8 -13 -16 -38 0
-1 -5 -9 -13 -17 -39 0
-1 -6 -7 -14 -15 -40 0
-1 -6 -8 -14 -16 -41 0
-1 -6 -9 -14 -17 -42 0
-1 -7 -8 -15 -16 -43 0
-1 -7 -9 -15 -17 -44 0
-1 -8 -9 -16 -17 -45 0
-2 -3 -4 -18 -19 -25 0
-2 -3 -5 -18 -20 -26 0
-2 -3 -6 -18 -21 -27 0
-2 -3 -7 -18 -22 -28 0
-2 -3 -8 -18 -23 -29 0
-2 -3 -9 -18 -24 -30 0
-2 -4 -5 -19 -20 -31 0
-2 -4 -6 -19 -21 -32 0
-2 -4 -7 -19 -22 -33 0
-2 -4 -8 -19 -23 -34 0
-2 -4 -9 -19 -24 -35 0
-2 -5 -6 -20 -21 -36 0
-2 -5 -7 -20 -22 -37 0
-2 -5 -8 -20 -23 -38 0
-2 -5 -9 -20 -24 -39 0
-2 -6 -7 -21 -22 -40 0
-2 -6 -8 -21 -23 -41 0
-2 -6 -9 -21 -24 -42 0
-2 -7 -8 -22 -23 -43 0
-2 -7 -9 -22 -24 -44 0
-2 -8 -9 -23 -24 -45 0
-3 -4 -5 -25 -26 -31 0
-3 -4 -6 -25 -27 -32 0
-3 -4 -7 -25 -28 -33 0
-3 -4 -8 -25 -29 -34 0
-3 -4 -9 -25 -30 -35 0
-3 -5 -6 -26 -27 -36 0
-3 -5 -7 -26 -28 -37 0
-3 -5 -8 -26 -29 -38 0
-3 -5 -9 -26 -30 -39 0
-3 -6 -7 -27 -28 -40 0
-3 -6 -8 -27 -29 -41 0
-3 -6 -9 -27 -30 -42 0
-3 -7 -8 -28 -29 -43 0
-3 -7 -9 -28 -30 -44 0
-3 -8 -9 -29 -30 -45 0
-4 -5 -6 -31 -32 -36 0
-4 -5 -7 -31 -33 -37 0
-4 -5 -8 -31 -34 -38 0
-4 -5 -9 -31 -35 -39 0
-4 -6 -7 -32 -33 -40 0
-4 -6 -8 -32 -34 -41 0
-4 -6 -9 -32 -35 -42 0
-4 -7 -8 -33 -34 -43 0
-4 -7 -9 -33 -35 -44 0
-4 -8 -9 -34 -35 -45 0
-5 -6 -7 -36 -37 -40 0
-5 -6 -8 -36 -38 -41 0
-5 -6 -9 -36 -39 -42 0
-5 -7 -8 -37 -38 -43 0
-5 -7 -9 -37 -39 -44 0
-5 -8 -9 -38 -39 -45 0
-6 -7 -8 -40 -41 -43 0
-6 -7 -9 -40 -42 -44 0
-6 -8 -9 -41 -42 -45 0
-7 -8 -9 -43 -44 -45 0
-10 -11 -12 -18 -19 -25 0
-10 -11 -13 -18 -20 -26 0
-10 -11 -14 -18 -21 -27 0
-10 -11 -15 -18 -22 -28 0
-10 -11 -16 -18 -23 -29 0
-10 -11 -17 -18 -24 -30 0
-10 -12 -13 -19 -20 -31 0
-10 -12 -14 -19 -21 -32 0
-10 -12 -15 -19 -22 -33 0
-10 -12 -16 -19 -23 -34 0
-10 -12 -17 -19 -24 -35 0
-10 -13 -14 -20 -21 -36 0
-10 -13 -15 -20 -22 -37 0
-10 -13 -16 -20 -23 -38 0
-10 -13 -17 -20 -24 -39 0
-10 -14 -15 -21 -22 -40 0
-10 -14 -16 -21 -23 -41 0
-10 -14 -17 -21 -24 -42 0
-10 -15 -16 -22 -23 -43 0
-10 -15 -17 -22 -24 -44 0
-10 -16 -17 -23 -24 -45 0
-11 -12 -13 -25 -26 -31 0
-11 -12 -14 -25 -27 -32 0
-11 -12 -15 -25 -28 -33 0
-11 -12 -16 -25 -29 -34 0
-11 -12 -17 -25 -30 -35 0
-11 -13 -14 -26 -27 -36 0
-11 -13 -15 -26 -28 -37 0
-11 -13 -16 -26 -29 -38 0
-11 -13 -17 -26 -30 -39 0
-11 -14 -15 -27 -28 -40 0
-11 -14 -16 -27 -29 -41 0
-11 -14 -17 -27 -30 -42 0
-11 -15 -16 -28 -29 -43 0
-11 -15 -17 -28 -30 -44 0
-11 -16 -17 -29 -30 -45 0
-12 -13 -14 -31 -32 -36 0
-12 -13 -15 -31 -33 -37 0
-12 -13 -16 -31 -34 -38 0
-12 -13 -17 -31 -35 -39 0
-12 -14 -15 -32 -33 -40 0
-12 -14 -16 -32 -34 -41 0
-12 -14 -17 -32 -35 -42 0
-12 -15 -16 -33 -34 -43 0
-12 -15 -17 -33 -35 -44 0
-12 -16 -17 -34 -35 -45 0
-13 -14 -15 -36 -37 -40 0
-13 -14 -16 -36 -38 -41 0
-13 -14 -17 -36 -39 -42 0
-13 -15 -16 -37 -38 -43 0
-13 -15 -17 -37 -39 -44 0
-13 -16 -17 -38 -39 -45 0
-14 -15 -16 -40 -41 -43 0
-14 -15 -17 -40 -42 -44 0
-14 -16 -17 -41 -42 -45 0
-15 -16 -17 -43 -44 -45 0
-18 -19 -20 -25 -26 -31 0
-18 -19 -21 -25 -27 -32 0
-18 -19 -22 -25 -28 -33 0
-18 -19 -23 -25 -29 -34 0
-18 -19 -24 -25 -30 -35 0
-18 -20 -21 -26 -27 -36 0
-18 -20 -22 -26 -28 -37 0
-18 -20 -23 -26 -29 -38 0
-18 -20 -24 -26 -30 -39 0
-18 -21 -22 -27 -28 -40 0
-18 -21 -23 -27 -29 -41 0
-18 -21 -24 -27 -30 -42 0
-18 -22 -23 -28 -29 -43 0
-18 -22 -24 -28 -30 -44 0
-18 -23 -24 -29 -30 -45 0
-19 -20 -21 -31 -32 -36 0
-19 -20 -22 -31 -33 -37 0
-19 -20 -23 -31 -34 -38 0
-19 -20 -24 -31 -35 -39 0
-19 -21 -22 -32 -33 -40 0
-19 -21 -23 -32 -34 -41 0
-19 -21 -24 -32 -35 -42 0
-19 -22 -23 -33 -34 -43 0
-19 -22 -24 -33 -35 -44 0
-19 -23 -24 -34 -35 -45 0
-20 -21 -22 -36 -37 -40 0
-20 -21 -23 -36 -38 -41 0
-20 -21 -24 -36 -39 -42 0
-20 -22 -23 -37 -38 -43 0
-20 -22 -24 -37 -39 -44 0
-20 -23 -24 -38 -39 -45 0
-21 -22 -23 -40 -41 -43 0
-21 -22 -24 -40 -42 -44 0
-21 -23 -24 -41 -42 -45 0
-22 -23 -24 -43 -44 -45 0
-25 -26 -27 -31 -32 -36 0
-25 -26 -28 -31 -33 -37 0
-25 -26 -29 -31 -34 -38 0
-25 -26 -30 -31 -35 -39 0
-25 -27 -28 -32 -33 -40 0
-25 -27 -29 -32 -34 -41 0
-25 -27 -30 -32 -35 -42 0
-25 -28 -29 -33 -34 -43 0
-25 -28 -30 -33 -35 -44 0
-25 -29 -30 -34 -35 -45 0
-26 -27 -28 -36 -37 -40 0
-26 -27 -29 -36 -38 -41 0
-26 -27 -30 -36 -39 -42 0
-26 -28 -29 -37 -38 -43 0
-26 -28 -30 -37 -39 -44 0
-26 -29 -30 -38 -39 -45 0
-27 -28 -29 -40 -41 -43 0
-27 -28 -30 -40 -42 -44 0
-27 -29 -30 -41 -42 -45 0
-28 -29 -30 -43 -44 -45 0
-31 -32 -33 -36 -37 -40 0
-31 -32 -34 -36 -38 -41 0
-31 -32 -35 -36 -39 -42 0
-31 -33 -34 -37 -38 -43 0
-31 -33 -35 -37 -39 -44 0
-31 -34 -35 -38 -39 -45 0
-32 -33 -34 -40 -41 -43 0
-32 -33 -35 -40 -42 -44 0
-32 -34 -35 -41 -42 -45 0
-33 -34 -35 -43 -44 -45 0
-36 -37 -38 -40 -41 -43 0
-36 -37 -39 -40 -42 -44 0
-36 -38 -39 -41 -42 -45 0
-37 -38 -39 -43 -44 -45 0
-40 -41 -42 -43 -44 -45 0
-1 -2 -3 -4 -10 -18 -25 -12 0
-1 -2 -3 -4 -10 -19 -25 -11 0
-1 -2 -3 -4 -11 -18 -19 -12 0
-1 -2 -3 -5 -10 -18 -26 -13 0
-1 -2 -3 -5 -10 -20 -26 -11 0
-1 -2 -3 -5 -11 -18 -20 -13 0
-1 -2 -3 -6 -10 -18 -27 -14 0
-1 -2 -3 -6 -10 -21 -27 -11 0
-1 -2 -3 -6 -11 -18 -21 -14 0
-1 -2 -3 -7 -10 -18 -28 -15 0
-1 -2 -3 -7 -10 -22 -28 -11 0
-1 -2 -3 -7 -11 -18 -22 -15 0
-1 -2 -3 -8 -10 -18 -29 -16 0
-1 -2 -3 -8 -10 -23 -29 -11 0
-1 -2 -3 -8 -11 -18 -23 -16 0
-1 -2 -3 -9 -10 -18 -30 -17 0
-1 -2 -3 -9 -10 -24 -30 -11 0
-1 -2 -3 -9 -11 -18 -24 -17 0
-1 -2 -4 -5 -10 -19 -31 -13 0
-1 -2 -4 -5 -10 -20 -31 -12 0
-1 -2 -4 -5 -12 -19 -20 -13 0
-1 -2 -4 -6 -10 -19 -32 -14 0
-1 -2 -4 -6 -10 -21 -32 -12 0
-1 -2 -4 -6 -12 -19 -21 -14 0
-1 -2 -4 -7 -10 -19 -33 -15 0
-1 -2 -4 -7 -10 -22 -33 -12 0
-1 -2 -4 -7 -12 -19 -22 -15 0
-1 -2 -4 -8 -10 -19 -34 -16 0
-1 -2 -4 -8 -10 -23 -34 -12 0
-1 -2 -4 -8 -12 -19 -23 -16 0
-1 -2 -4 -9 -10 -19 -35 -17 0
-1 -2 -4 -9 -10 -24 -35 -12 0
-1 -2 -4 -9 -12 -19 -24 -17 0
-1 -2 -5 -6 -10 -20 -36 -14 0
-1 -2 -5 -6 -10 -21 -36 -13 0
-1 -2 -5 -6 -13 -20 -21 -14 0
-1 -2 -5 -7 -10 -20 -37 -15 0
-1 -2 -5 -7 -10 -22 -37 -13 0
-1 -2 -5 -7 -13 -20 -22 -15 0
-1 -2 -5 -8 -10 -20 -38 -16 0
-1 -2 -5 -8 -10 -23 -38 -13 0
-1 -2 -5 -8 -13 -20 -23 -16 0
-1 -2 -5 -9 -10 -20 -39 -17 0
-1 -2 -5 -9 -10 -24 -39 -13 0
-1 -2 -5 -9 -13 -20 -24 -17 0
-1 -2 -6 -7 -10 -21 -40 -15 0
-1 -2 -6 -7 -10 -22 -40 -14 0
-1 -2 -6 -7 -14 -21 -22 -15 0
-1 -2 -6 -8 -10 -21 -41 -16 0
-1 -2 -6 -8 -10 -23 -41 -14 0
-1 -2 -6 -8 -14 -21 -23 -16 0
-1 -2 -6 -9 -10 -21 -42 -17 0
-1 -2 -6 -9 -10 -24 -42 -14 0
-1 -2 -6 -9 -14 -21 -24 -17 0
-1 -2 -7 -8 -10 -22 -43 -16 0
-1 -2 -7 -8 -10 -23 -43 -15 0
-1 -2 -7 -8 -15 -22 -23 -16 0
-1 -2 -7 -9 -10 -22 -44 -17 0
-1 -2 -7 -9 -10 -24 -44 -15 0
-1 -2 -7 -9 -15 -22 -24 -17 0
-1 -2 -8 -9 -10 -23 -45 -17 0
-1 -2 -8 -9 -10 -24 -45 -16 0
-1 -2 -8 -9 -16 -23 -24 -17 0
-1 -3 -4 -5 -11 -25 -31 -13 0
-1 -3 -4 -5 -11 -26 -31 -12 0
-1 -3 -4 -5 -12 -25 -26 -13 0
-1 -3 -4 -6 -11 -25 -32 -14 0
-1 -3 -4 -6 -11 -27 -32 -12 0
-1 -3 -4 -6 -12 -25 -27 -14 0
-1 -3 -4 -7 -11 -25 -33 -15 0
-1 -3 -4 -7 -11 -28 -33 -12 0
-1 -3 -4 -7 -12 -25 -28 -15 0
-1 -3 -4 -8 -11 -25 -34 -16 0
-1 -3 -4 -8 -11 -29 -34 -12 0
-1 -3 -4 -8 -12 -25 -29 -16 0
-1 -3 -4 -9 -11 -25 -35 -17 0
-1 -3 -4 -9 -11 -30 -35 -12 0
-1 -3 -4 -9 -12 -25 -30 -17 0
-1 -3 -5 -6 -11 -26 -36 -14 0
-1 -3 -5 -6 -11 -27 -36 -13 0
-1 -3 -5 -6 -13 -26 -27 -14 0
-1 -3 -5 -7 -11 -26 -37 -15 0
-1 -3 -5 -7 -11 -28 -37 -13 0
-1 -3 -5 -7 -13 -26 -28 -15 0
-1 -3 -5 -8 -11 -26 -38 -16 0
-1 -3 -5 -8 -11 -29 -38 -13 0
-1 -3 -5 -8 -13 -26 -29 -16 0
-1 -3 -5 -9 -11 -26 -39 -17 0
-1 -3 -5 -9 -11 -30 -39 -13 0
-1 -3 -5 -9 -13 -26 -30 -17 0
-1 -3 -6 -7 -11 -27 -40 -15 0
-1 -3 -6 -7 -11 -28 -40 -14 0
-1 -3 -6 -7 -14 -27 -28 -15 0
-1 -3 -6 -8 -11 -27 -41 -16 0
-1 -3 -6 -8 -11 -29 -41 -14 0
-1 -3 -6 -8 -14 -27 -29 -16 0
-1 -3 -6 -9 -11 -27 -42 -17 0
-1 -3 -6 -9 -11 -30 -42 -14 0
-1 -3 -6 -9 -14 -27 -30 -17 0
-1 -3 -7 -8 -11 -28 -43 -16 0
-1 -3 -7 -8 -11 -29 -43 -15 0
-1 -3 -7 -8 -15 -28 -29 -16 0
-1 -3 -7 -9 -11 -28 -44 -17 0
-1 -3 -7 -9 -11 -30 -44 -15 0
-1 -3 -7 -9 -15 -28 -30 -17 0
-1 -3 -8 -9 -11 -29 -45 -17 0
-1 -3 -8 -9 -11 -30 -45 -16 0
-1 -3 -8 -9 -16 -29 -30 -17 0
-1 -4 -5 -6 -12 -31 -36 -14 0
-1 -4 -5 -6 -12 -32 -36 -13 0
-1 -4 -5 -6 -13 -31 -32 -14 0
-1 -4 -5 -7 -12 -31 -37 -15 0
-1 -4 -5 -7 -12 -33 -37 -13 0
-1 -4 -5 -7 -13 -31 -33 -15 0
-1 -4 -5 -8 -12 -31 -38 -16 0
-1 -4 -5 -8 -12 -34 -38 -13 0
-1 -4 -5 -8 -13 -31 -34 -16 0
-1 -4 -5 -9 -12 -31 -39 -17 0
-1 -4 -5 -9 -12 -35 -39 -13 0
-1 -4 -5 -9 -13 -31 -35 -17 0
-1 -4 -6 -7 -12 -32 -40 -15 0
-1 -4 -6 -7 -12 -33 -40 -14 0
-1 -4 -6 -7 -14 -32 -33 -15 0
-1 -4 -6 -8 -12 -32 -41 -16 0
-1 -4 -6 -8 -12 -34 -41 -14 0
-1 -4 -6 -8 -14 -32 -34 -16 0
-1 -4 -6 -9 -12 -32 -42 -17 0
-1 -4 -6 -9 -12 -35 -42 -14 0
-1 -4 -6 -9 -14 -32 -35 -17 0
-1 -4 -7 -8 -12 -33 -43 -16 0
-1 -4 -7 -8 -12 -34 -43 -15 0
-1 -4 -7 -8 -15 -33 -34 -16 0
-1 -4 -7 -9 -12 -33 -44 -17 0
-1 -4 -7 -9 -12 -35 -44 -15 0
-1 -4 -7 -9 -15 -33 -35 -17 0
-1 -4 -8 -9 -12 -34 -45 -17 0
-1 -4 -8 -9 -12 -35 -45 -16 0
-1 -4 -8 -9 -16 -34 -35 -17 0
-1 -5 -6 -7 -13 -36 -40 -15 0
-1 -5 -6 -7 -13 -37 -40 -14 0
-1 -5 -6 -7 -14 -36 -37 -15 0
-1 -5 -6 -8 -13 -36 -41 -16 0
-1 -5 -6 -8 -13 -38 -41 -14 0
-1 -5 -6 -8 -14 -36 -38 -16 0
-1 -5 -6 -9 -13 -36 -42 -17 0
-1 -5 -6 -9 -13 -39 -42 -14 0
-1 -5 -6 -9 -14 -36 -39 -17 0
-1 -5 -7 -8 -13 -37 -43 -16 0
-1 -5 -7 -8 -13 -38 -43 -15 0
-1 -5 -7 -8 -15 -37 -38 -16 0
-1 -5 -7 -9 -13 -37 -44 -17 0
-1 -5 -7 -9 -13 -39 -44 -15 0
-1 -5 -7 -9 -15 -37 -39 -17 0
-1 -5 -8 -9 -13 -38 -45 -17 0
-1 -5 -8 -9 -13 -39 -45 -16 0
-1 -5 -8 -9 -16 -38 -39 -17 0
-1 -6 -7 -8 -14 -40 -43 -16 0
-1 -6 -7 -8 -14 -41 -43 -15 0
-1 -6 -7 -8 -15 -40 -41 -16 0
-1 -6 -7 -9 -14 -40 -44 -17 0
-1 -6 -7 -9 -14 -42 -44 -15 0
-1 -6 -7 -9 -15 -40 -42 -17 0
-1 -6 -8 -9 -14 -41 -45 -17 0
-1 -6 -8 -9 -14 -42 -45 -16 0
-1 -6 -8 -9 -16 -41 -42 -17 0
-1 -7 -8 -9 -15 -43 -45 -17 0
-1 -7 -8 -9 -15 -44 -45 -16 0
-1 -7 -8 -9 -16 -43 -44 -17 0
-2 -3 -4 -5 -18 -25 -31 -20 0
-2 -3 -4 -5 -18 -26 -31 -19 0
-2 -3 -4 -5 -19 -25 -26 -20 0
-2 -3 -4 -6 -18 -25 -32 -21 0
-2 -3 -4 -6 -18 -27 -32 -19 0
-2 -3 -4 -6 -19 -25 -27 -21 0
-2 -3 -4 -7 -18 -25 -33 -22 0
-2 -3 -4 -7 -18 -28 -33 -19 0
-2 -3 -4 -7 -19 -25 -28 -22 0
-2 -3 -4 -8 -18 -25 -34 -23 0
-2 -3 -4 -8 -18 -29 -34 -19 0
-2 -3 -4 -8 -19 -25 -29 -23 0
-2 -3 -4 -9 -18 -25 -35 -24 0
-2 -3 -4 -9 -18 -30 -35 -19 0
-2 -3 -4 -9 -19 -25 -30 -24 0
-2 -3 -5 -6 -18 -26 -36 -21 0
-2 -3 -5 -6 -18 -27 -36 -20 0
-2 -3 -5 -6 -20 -26 -27 -21 0
-2 -3 -5 -7 -18 -26 -37 -22 0
-2 -3 -5 -7 -18 -28 -37 -20 0
-2 -3 -5 -7 -20 -26 -28 -22 0
-2 -3 -5 -8 -18 -26 -38 -23 0
-2 -3 -5 -8 -18 -29 -38 -20 0
-2 -3 -5 -8 -20 -26 -29 -23 0
-2 -3 -5 -9 -18 -26 -39 -24 0
-2 -3 -5 -9 -18 -30 -39 -20 0
-2 -3 -5 -9 -20 -26 -30 -24 0
-2 -3 -6 -7 -18 -27 -40 -22 0
-2 -3 -6 -7 -18 -28 -40 -21 0
-2 -3 -6 -7 -21 -27 -28 -22 0
-2 -3 -6 -8 -18 -27 -41 -23 0
-2 -3 -6 -8 -18 -29 -41 -21 0
-2 -3 -6 -8 -21 -27 -29 -23 0
-2 -3 -6 -9 -18 -27 -42 -24 0
-2 -3 -6 -9 -18 -30 -42 -21 0
-2 -3 -6 -9 -21 -27 -30 -24 0
-2 -3 -7 -8 -18 -28 -43 -23 0
-2 -3 -7 -8 -18 -29 -43 -22 0
-2 -3 -7 -8 -22 -28 -29 -23 0
-2 -3 -7 -9 -18 -28 -44 -24 0
-2 -3 -7 -9 -18 -30 -44 -22 0
-2 -3 -7 -9 -22 -28 -30 -24 0
-2 -3 -8 -9 -18 -29 -45 -24 0
-2 -3 -8 -9 -18 -30 -45 -23 0
-2 -3 -8 -9 -23 -29 -30 -24 0
-2 -4 -5 -6 -19 -31 -36 -21 0
-2 -4 -5 -6 -19 -32 -36 -20 0
-2 -4 -5 -6 -20 -31 -32 -21 0
-2 -4 -5 -7 -19 -31 -37 -22 0
-2 -4 -5 -7 -19 -33 -37 -20 0
-2 -4 -5 -7 -20 -31 -33 -22 0
-2 -4 -5 -8 -19 -31 -38 -23 0
-2 -4 -5 -8 -19 -34 -38 -20 0
-2 -4 -5 -8 -20 -31 -34 -23 0
-2 -4 -5 -9 -19 -31 -39 -24 0
-2 -4 -5 -9 -19 -35 -39 -20 0
-2 -4 -5 -9 -20 -31 -35 -24 0
-2 -4 -6 -7 -19 -32 -40 -22 0
-2 -4 -6 -7 -19 -33 -40 -21 0
-2 -4 -6 -7 -21 -32 -33 -22 0
-2 -4 -6 -8 -19 -32 -41 -23 0
-2 -4 -6 -8 -19 -34 -41 -21 0
-2 -4 -6 -8 -21 -32 -34 -23 0
-2 -4 -6 -9 -19 -32 -42 -24 0
-2 -4 -6 -9 -19 -35 -42 -21 0
-2 -4 -6 -9 -21 -32 -35 -24 0
-2 -4 -7 -8 -19 -33 -43 -23 0
-2 -4 -7 -8 -19 -34 -43 -22 0
-2 -4 -7 -8 -22 -33 -34 -23 0
-2 -4 -7 -9 -19 -33 -44 -24 0
-2 -4 -7 -9 -19 -35 -44 -22 0
-2 -4 -7 -9 -22 -33 -35 -24 0
-2 -4 -8 -9 -19 -34 -45 -24 0
-2 -4 -8 -9 -19 -35 -45 -23 0
-2 -4 -8 -9 -23 -34 -35 -24 0
-2 -5 -6 -7 -20 -36 -40 -22 0
-2 -5 -6 -7 -20 -37 -40 -21 0
-2 -5 -6 -7 -21 -36 -37 -22 0
-2 -5 -6 -8 -20 -36 -41 -23 0
-2 -5 -6 -8 -20 -38 -41 -21 0
-2 -5 -6 -8 -21 -36 -38 -23 0
-2 -5 -6 -9 -20 -36 -42 -24 0
-2 -5 -6 -9 -20 -39 -42 -21 0
-2 -5 -6 -9 -21 -36 -39 -24 0
-2 -5 -7 -8 -20 -37 -43 -23 0
-2 -5 -7 -8 -20 -38 -43 -22 0
-2 -5 -7 -8 -22 -37 -38 -23 0
-2 -5 -7 -9 -20 -37 -44 -24 0
-2 -5 -7 -9 -20 -39 -44 -22 0
-2 -5 -7 -9 -22 -37 -39 -24 0
-2 -5 -8 -9 -20 -38 -45 -24 0
-2 -5 -8 -9 -20 -39 -45 -23 0
-2 -5 -8 -9 -23 -38 -39 -24 0
-2 -6 -7 -8 -21 -40 -43 -23 0
-2 -6 -7 -8 -21 -41 -43 -22 0
-2 -6 -7 -8 -22 -40 -41 -23 0
-2 -6 -7 -9 -21 -40 -44 -24 0
-2 -6 -7 -9 -21 -42 -44 -22 0
-2 -6 -7 -9 -22 -40 -42 -24 0
-2 -6 -8 -9 -21 -41 -45 -24 0
-2 -6 -8 -9 -21 -42 -45 -23 0
-2 -6 -8 -9 -23 -41 -42 -24 0
-2 -7 -8 -9 -22 -43 -45 -24 0
-2 -7 -8 -9 -22 -44 -45 -23 0
-2 -7 -8 -9 -23 -43 -44 -24 0
-3 -4 -5 -6 -25 -31 -36 -27 0
-3 -4 -5 -6 -25 -32 -36 -26 0
-3 -4 -5 -6 -26 -31 -32 -27 0
-3 -4 -5 -7 -25 -31 -37 -28 0
-3 -4 -5 -7 -25 -33 -37 -26 0
-3 -4 -5 -7 -26 -31 -33 -28 0
-3 -4 -5 -8 -25 -31 -38 -29 0
-3 -4 -5 -8 -25 -34 -38 -26 0
-3 -4 -5 -8 -26 -31 -34 -29 0
-3 -4 -5 -9 -25 -31 -39 -30 0
-3 -4 -5 -9 -25 -35 -39 -26 0
-3 -4 -5 -9 -26 -31 -35 -30 0
-3 -4 -6 -7 -25 -32 -40 -28 0
-3 -4 -6 -7 -25 -33 -40 -27 0
-3 -4 -6 -7 -27 -32 -33 -28 0
-3 -4 -6 -8 -25 -32 -41 -29 0
-3 -4 -6 -8 -25 -34 -41 -27 0
-3 -4 -6 -8 -27 -32 -34 -29 0
-3 -4 -6 -9 -25 -32 -42 -30 0
-3 -4 -6 -9 -25 -35 -42 -27 0
-3 -4 -6 -9 -27 -32 -35 -30 0
-3 -4 -7 -8 -25 -33 -43 -29 0
-3 -4 -7 -8 -25 -34 -43 -28 0
-3 -4 -7 -8 -28 -33 -34 -29 0
-3 -4 -7 -9 -25 -33 -44 -30 0
-3 -4 -7 -9 -25 -35 -44 -28 0
-3 -4 -7 -9 -28 -33 -35 -30 0
-3 -4 -8 -9 -25 -34 -45 -30 0
-3 -4 -8 -9 -25 -35 -45 -29 0
-3 -4 -8 -9 -29 -34 -35 -30 0
-3 -5 -6 -7 -26 -36 -40 -28 0
-3 -5 -6 -7 -26 -37 -40 -27 0
-3 -5 -6 -7 -27 -36 -37 -28 0
-3 -5 -6 -8 -26 -36 -41 -29 0
-3 -5 -6 -8 -26 -38 -41 -27 0
-3 -5 -6 -8 -27 -36 -38 -29 0
-3 -5 -6 -9 -26 -36 -42 -30 0
-3 -5 -6 -9 -26 -39 -42 -27 0
-3 -5 -6 -9 -27 -36 -39 -30 0
-3 -5 -7 -8 -26 -37 -43 -29 0
-3 -5 -7 -8 -26 -38 -43 -28 0
-3 -5 -7 -8 -28 -37 -38 -29 0
-3 -5 -7 -9 -26 -37 -44 -30 0
-3 -5 -7 -9 -26 -39 -44 -28 0
-3 -5 -7 -9 -28 -37 -39 -30 0
-3 -5 -8 -9 -26 -38 -45 -30 0
-3 -5 -8 -9 -26 -39 -45 -29 0
-3 -5 -8 -9 -29 -38 -39 -30 0
-3 -6 -7 -8 -27 -40 -43 -29 0
-3 -6 -7 -8 -27 -41 -43 -28 0
-3 -6 -7 -8 -28 -40 -41 -29 0
-3 -6 -7 -9 -27 -40 -44 -30 0
-3 -6 -7 -9 -27 -42 -44 -28 0
-3 -6 -7 -9 -28 -40 -42 -30 0
-3 -6 -8 -9 -27 -41 -45 -30 0
-3 -6 -8 -9 -27 -42 -45 -29 0
-3 -6 -8 -9 -29 -41 -42 -30 0
-3 -7 -8 -9 -28 -43 -45 -30 0
-3 -7 -8 -9 -28 -44 -45 -29 0
-3 -7 -8 -9 -29 -43 -44 -30 0
-4 -5 -6 -7 -31 -36 -40 -33 0
-4 -5 -6 -7 -31 -37 -40 -32 0
-4 -5 -6 -7 -32 -36 -37 -33 0
-4 -5 -6 -8 -31 -36 -41 -34 0
-4 -5 -6 -8 -31 -38 -41 -32 0
-4 -5 -6 -8 -32 -36 -38 -34 0
-4 -5 -6 -9 -31 -36 -42 -35 0
-4 -5 -6 -9 -31 -39 -42 -32 0
-4 -5 -6 -9 -32 -36 -39 -35 0
-4 -5 -7 -8 -31 -37 -43 -34 0
-4 -5 -7 -8 -31 -38 -43 -33 0
-4 -5 -7 -8 -33 -37 -38 -34 0
-4 -5 -7 -9 -31 -37 -44 -35 0
-4 -5 -7 -9 -31 -39 -44 -33 0
-4 -5 -7 -9 -33 -37 -39 -35 0
-4 -5 -8 -9 -31 -38 -45 -35 0
-4 -5 -8 -9 -31 -39 -45 -34 0
-4 -5 -8 -9 -34 -38 -39 -35 0
-4 -6 -7 -8 -32 -40 -43 -34 0
-4 -6 -7 -8 -32 -41 -43 -33 0
-4 -6 -7 -8 -33 -40 -41 -34 0
-4 -6 -7 -9 -32 -40 -44 -35 0
-4 -6 -7 -9 -32 -42 -44 -33 0
-4 -6 -7 -9 -33 -40 -42 -35 0
-4 -6 -8 -9 -32 -41 -45 -35 0
-4 -6 -8 -9 -32 -42 -45 -34 0
-4 -6 -8 -9 -34 -41 -42 -35 0
-4 -7 -8 -9 -33 -43 -45 -35 0
-4 -7 -8 -9 -33 -44 -45 -34 0
-4 -7 -8 -9 -34 -43 -44 -35 0
-5 -6 -7 -8 -36 -40 -43 -38 0
-5 -6 -7 -8 -36 -41 -43 -37 0
-5 -6 -7 -8 -37 -40 -41 -38 0
-5 -6 -7 -9 -36 -40 -44 -39 0
-5 -6 -7 -9 -36 -42 -44 -37 0
-5 -6 -7 -9 -37 -40 -42 -39 0
-5 -6 -8 -9 -36 -41 -45 -39 0
-5 -6 -8 -9 -36 -42 -45 -38 0
-5 -6 -8 -9 -38 -41 -42 -39 0
-5 -7 -8 -9 -37 -43 -45 -39 0
-5 -7 -8 -9 -37 -44 -45 -38 0
-5 -7 -8 -9 -38 -43 -44 -39 0
-6 -7 -8 -9 -40 -43 -45 -42 0
-6 -7 -8 -9 -40 -44 -45 -41 0
-6 -7 -8 -9 -41 -43 -44 -42 0
-1 -10 -11 -12 -2 -18 -25 -4 0
-1 -10 -11 -12 -2 -19 -25 -3 0
-1 -10 -11 -12 -3 -18 -19 -4 0
-1 -10 -11 -13 -2 -18 -26 -5 0
-1 -10 -11 -13 -2 -20 -26 -3 0
-1 -10 -11 -13 -3 -18 -20 -5 0
-1 -10 -11 -14 -2 -18 -27 -6 0
-1 -10 -11 -14 -2 -21 -27 -3 0
-1 -10 -11 -14 -3 -18 -21 -6 0
-1 -10 -11 -15 -2 -18 -28 -7 0
-1 -10 -11 -15 -2 -22 -28 -3 0
-1 -10 -11 -15 -3 -18 -22 -7 0
-1 -10 -11 -16 -2 -18 -29 -8 0
-1 -10 -11 -16 -2 -23 -29 -3 0
-1 -10 -11 -16 -3 -18 -23 -8 0
-1 -10 -11 -17 -2 -18 -30 -9 0
-1 -10 -11 -17 -2 -24 -30 -3 0
-1 -10 -11 -17 -3 -18 -24 -9 0
-1 -10 -12 -13 -2 -19 -31 -5 0
-1 -10 -12 -13 -2 -20 -31 -4 0
-1 -10 -12 -13 -4 -19 -20 -5 0
-1 -10 -12 -14 -2 -19 -32 -6 0
-1 -10 -12 -14 -2 -21 -32 -4 0
-1 -10 -12 -14 -4 -19 -21 -6 0
-1 -10 -12 -15 -2 -19 -33 -7 0
-1 -10 -12 -15 -2 -22 -33 -4 0
-1 -10 -12 -15 -4 -19 -22 -7 0
-1 -10 -12 -16 -2 -19 -34 -8 0
-1 -10 -12 -16 -2 -23 -34 -4 0
-1 -10 -12 -16 -4 -19 -23 -8 0
-1 -10 -12 -17 -2 -19 -35 -9 0
-1 -10 -12 -17 -2 -24 -35 -4 0
-1 -10 -12 -17 -4 -19 -24 -9 0
-1 -10 -13 -14 -2 -20 -36 -6 0
-1 -10 -13 -14 -2 -21 -36 -5 0
-1 -10 -13 -14 -5 -20 -21 -6 0
-1 -10 -13 -15 -2 -20 -37 -7 0
-1 -10 -13 -15 -2 -22 -37 -5 0
-1 -10 -13 -15 -5 -20 -22 -7 0
-1 -10 -13 -16 -2 -20 -38 -8 0
-1 -10 -13 -16 -2 -23 -38 -5 0
-1 -10 -13 -16 -5 -20 -23 -8 0
-1 -10 -13 -17 -2 -20 -39 -9 0
-1 -10 -13 -17 -2 -24 -39 -5 0
-1 -10 -13 -17 -5 -20 -24 -9 0
-1 -10 -14 -15 -2 -21 -40 -7 0
-1 -10 -14 -15 -2 -22 -40 -6 0
-1 -10 -14 -15 -6 -21 -22 -7 0
-1 -10 -14 -16 -2 -21 -41 -8 0
-1 -10 -14 -16 -2 -23 -41 -6 0
-1 -10 -14 -16 -6 -21 -23 -8 0
-1 -10 -14 -17 -2 -21 -42 -9 0
-1 -10 -14 -17 -2 -24 -42 -6 0
-1 -10 -14 -17 -6 -21 -24 -9 0
-1 -10 -15 -16 -2 -22 -43 -8 0
-1 -10 -15 -16 -2 -23 -43 -7 0
-1 -10 -15 -16 -7 -22 -23 -8 0
-1 -10 -15 -17 -2 -22 -44 -9 0
-1 -10 -15 -17 -2 -24 -44 -7 0
-1 -10 -15 -17 -7 -22 -24 -9 0
-1 -10 -16 -17 -2 -23 -45 -9 0
-1 -10 -16 -17 -2 -24 -45 -8 0
-1 -10 -16 -17 -8 -23 -24 -9 0
-1 -11 -12 -13 -3 -25 -31 -5 0
-1 -11 -12 -13 -3 -26 -31 -4 0
-1 -11 -12 -13 -4 -25 -26 -5 0
-1 -11 -12 -14 -3 -25 -32 -6 0
-1 -11 -12 -14 -3 -27 -32 -4 0
-1 -11 -12 -14 -4 -25 -27 -6 0
-1 -11 -12 -15 -3 -25 -33 -7 0
-1 -11 -12 -15 -3 -28 -33 -4 0
-1 -11 -12 -15 -4 -25 -28 -7 0
-1 -11 -12 -16 -3 -25 -34 -8 0
-1 -11 -12 -16 -3 -29 -34 -4 0
-1 -11 -12 -16 -4 -25 -29 -8 0
-1 -11 -12 -17 -3 -25 -35 -9 0
-1 -11 -12 -17 -3 -30 -35 -4 0
-1 -11 -12 -17 -4 -25 -30 -9 0
-1 -11 -13 -14 -3 -26 -36 -6 0
-1 -11 -13 -14 -3 -27 -36 -5 0
-1 -11 -13 -14 -5 -26 -27 -6 0
-1 -11 -13 -15 -3 -26 -37 -7 0
-1 -11 -13 -15 -3 -28 -37 -5 0
-1 -11 -13 -15 -5 -26 -28 -7 0
-1 -11 -13 -16 -3 -26 -38 -8 0
-1 -11 -13 -16 -3 -29 -38 -5 0
-1 -11 -13 -16 -5 -26 -29 -8 0
-1 -11 -13 -17 -3 -26 -39 -9 0
-1 -11 -13 -17 -3 -30 -39 -5 0
-1 -11 -13 -17 -5 -26 -30 -9 0
-1 -11 -14 -15 -3 -27 -40 -7 0
-1 -11 -14 -15 -3 -28 -40 -6 0
-1 -11 -14 -15 -6 -27 -28 -7 0
-1 -11 -14 -16 -3 -27 -41 -8 0
-1 -11 -14 -16 -3 -29 -41 -6 0
-1 -11 -14 -16 -6 -27 -29 -8 0
-1 -11 -14 -17 -3 -27 -42 -9 0
-1 -11 -14 -17 -3 -30 -42 -6 0
-1 -11 -14 -17 -6 -27 -30 -9 0
-1 -11 -15 -16 -3 -28 -43 -8 0
-1 -11 -15 -16 -3 -29 -43 -7 0
-1 -11 -15 -16 -7 -28 -29 -8 0
-1 -11 -15 -17 -3 -28 -44 -9 0
-1 -11 -15 -17 -3 -30 -44 -7 0
-1 -11 -15 -17 -7 -28 -30 -9 0
-1 -11 -16 -17 -3 -29 -45 -9 0
-1 -11 -16 -17 -3 -30 -45 -8 0
-1 -11 -16 -17 -8 -29 -30 -9 0
-1 -12 -13 -14 -4 -31 -36 -6 0
-1 -12 -13 -14 -4 -32 -36 -5 0
-1 -12 -13 -14 -5 -31 -32 -6 0
-1 -12 -13 -15 -4 -31 -37 -7 0
-1 -12 -13 -15 -4 -33 -37 -5 0
-1 -12 -13 -15 -5 -31 -33 -7 0
-1 -12 -13 -16 -4 -31 -38 -8 0
-1 -12 -13 -16 -4 -34 -38 -5 0
-1 -12 -13 -16 -5 -31 -34 -8 0
-1 -12 -13 -17 -4 -31 -39 -9 0
-1 -12 -13 -17 -4 -35 -39 -5 0
-1 -12 -13 -17 -5 -31 -35 -9 0
-1 -12 -14 -15 -4 -32 -40 -7 0
-1 -12 -14 -15 -4 -33 -40 -6 0
-1 -12 -14 -15 -6 -32 -33 -7 0
-1 -12 -14 -16 -4 -32 -41 -8 0
-1 -12 -14 -16 -4 -34 -41 -6 0
-1 -12 -14 -16 -6 -32 -34 -8 0
-1 -12 -14 -17 -4 -32 -42 -9 0
-1 -12 -14 -17 -4 -35 -42 -6 0
-1 -12 -14 -17 -6 -32 -35 -9 0
-1 -12 -15 -16 -4 -33 -43 -8 0
-1 -12 -15 -16 -4 -34 -43 -7 0
-1 -12 -15 -16 -7 -33 -34 -8 0
-1 -12 -15 -17 -4 -33 -44 -9 0
-1 -12 -15 -17 -4 -35 -44 -7 0
-1 -12 -15 -17 -7 -33 -35 -9 0
-1 -12 -16 -17 -4 -34 -45 -9 0
-1 -12 -16 -17 -4 -35 -45 -8 0
-1 -12 -16 -17 -8 -34 -35 -9 0
-1 -13 -14 -15 -5 -36 -40 -7 0
-1 -13 -14 -15 -5 -37 -40 -6 0
-1 -13 -14 -15 -6 -36 -37 -7 0
-1 -13 -14 -16 -5 -36 -41 -8 0
-1 -13 -14 -16 -5 -38 -41 -6 0
-1 -13 -14 -16 -6 -36 -38 -8 0
-1 -13 -14 -17 -5 -36 -42 -9 0
-1 -13 -14 -17 -5 -39 -42 -6 0
-1 -13 -14 -17 -6 -36 -39 -9 0
-1 -13 -15 -16 -5 -37 -43 -8 0
-1 -13 -15 -16 -5 -38 -43 -7 0
-1 -13 -15 -16 -7 -37 -38 -8 0
-1 -13 -15 -17 -5 -37 -44 -9 0
-1 -13 -15 -17 -5 -39 -44 -7 0
-1 -13 -15 -17 -7 -37 -39 -9 0
-1 -13 -16 -17 -5 -38 -45 -9 0
-1 -13 -16 -17 -5 -39 -45 -8 0
-1 -13 -16 -17 -8 -38 -39 -9 0
-1 -14 -15 -16 -6 -40 -43 -8 0
-1 -14 -15 -16 -6 -41 -43 -7 0
-1 -14 -15 -16 -7 -40 -41 -8 0
-1 -14 -15 -17 -6 -40 -44 -9 0
-1 -14 -15 -17 -6 -42 -44 -7 0
-1 -14 -15 -17 -7 -40 -42 -9 0
-1 -14 -16 -17 -6 -41 -45 -9 0
-1 -14 -16 -17 -6 -42 -45 -8 0
-1 -14 -16 -17 -8 -41 -42 -9 0
-1 -15 -16 -17 -7 -43 -45 -9 0
-1 -15 -16 -17 -7 -44 -45 -8 0
-1 -15 -16 -17 -8 -43 -44 -9 0
-10 -11 -12 -13 -18 -25 -31 -20 0
-10 -11 -12 -13 -18 -26 -31 -19 0
-10 -11 -12 -13 -19 -25 -26 -20 0
-10 -11 -12 -14 -18 -25 -32 -21 0
-10 -11 -12 -14 -18 -27 -32 -19 0
-10 -11 -12 -14 -19 -25 -27 -21 0
-10 -11 -12 -15 -18 -25 -33 -22 0
-10 -11 -12 -15 -18 -28 -33 -19 0
-10 -11 -12 -15 -19 -25 -28 -22 0
-10 -11 -12 -16 -18 -25 -34 -23 0
-10 -11 -12 -16 -18 -29 -34 -19 0
-10 -11 -12 -16 -19 -25 -29 -23 0
-10 -11 -12 -17 -18 -25 -35 -24 0
-10 -11 -12 -17 -18 -30 -35 -19 0
-10 -11 -12 -17 -19 -25 -30 -24 0
-10 -11 -13 -14 -18 -26 -36 -21 0
-10 -11 -13 -14 -18 -27 -36 -20 0
-10 -11 -13 -14 -20 -26 -27 -21 0
-10 -11 -13 -15 -18 -26 -37 -22 0
-10 -11 -13 -15 -18 -28 -37 -20 0
-10 -11 -13 -15 -20 -26 -28 -22 0
-10 -11 -13 -16 -18 -26 -38 -23 0
-10 -11 -13 -16 -18 -29 -38 -20 0
-10 -11 -13 -16 -20 -26 -29 -23 0
-10 -11 -13 -17 -18 -26 -39 -24 0
-10 -11 -13 -17 -18 -30 -39 -20 0
-10 -11 -13 -17 -20 -26 -30 -24 0
-10 -11 -14 -15 -18 -27 -40 -22 0
-10 -11 -14 -15 -18 -28 -40 -21 0
-10 -11 -14 -15 -21 -27 -28 -22 0
-10 -11 -14 -16 -18 -27 -41 -23 0
-10 -11 -14 -16 -18 -29 -41 -21 0
-10 -11 -14 -16 -21 -27 -29 -23 0
-10 -11 -14 -17 -18 -27 -42 -24 0
-10 -11 -14 -17 -18 -30 -42 -21 0
-10 -11 -14 -17 -21 -27 -30 -24 0
-10 -11 -15 -16 -18 -28 -43 -23 0
-10 -11 -15 -16 -18 -29 -43 -22 0
-10 -11 -15 -16 -22 -28 -29 -23 0
-10 -11 -15 -17 -18 -28 -44 -24 0
-10 -11 -15 -17 -18 -30 -44 -22 0
-10 -11 -15 -17 -22 -28 -30 -24 0
-10 -11 -16 -17 -18 -29 -45 -24 0
-10 -11 -16 -17 -18 -30 -45 -23 0
-10 -11 -16 -17 -23 -29 -30 -24 0
-10 -12 -13 -14 -19 -31 -36 -21 0
-10 -12 -13 -14 -19 -32 -36 -20 0
-10 -12 -13 -14 -20 -31 -32 -21 0
-10 -12 -13 -15 -19 -31 -37 -22 0
-10 -12 -13 -15 -19 -33 -37 -20 0
-10 -12 -13 -15 -20 -31 -33 -22 0
-10 -12 -13 -16 -19 -31 -38 -23 0
-10 -12 -13 -16 -19 -34 -38 -20 0
-10 -12 -13 -16 -20 -31 -34 -23 0
-10 -12 -13 -17 -19 -31 -39 -24 0
-10 -12 -13 -17 -19 -35 -39 -20 0
-10 -12 -13 -17 -20 -31 -35 -24 0
-10 -12 -14 -15 -19 -32 -40 -22 0
-10 -12 -14 -15 -19 -33 -40 -21 0
-10 -12 -14 -15 -21 -32 -33 -22 0
-10 -12 -14 -16 -19 -32 -41 -23 0
-10 -12 -14 -16 -19 -34 -41 -21 0
-10 -12 -14 -16 -21 -32 -34 -23 0
-10 -12 -14 -17 -19 -32 -42 -24 0
-10 -12 -14 -17 -19 -35 -42 -21 0
-10 -12 -14 -17 -21 -32 -35 -24 0
-10 -12 -15 -16 -19 -33 -43 -23 0
-10 -12 -15 -16 -19 -34 -43 -22 0
-10 -12 -15 -16 -22 -33 -34 -23 0
-10 -12 -15 -17 -19 -33 -44 -24 0
-10 -12 -15 -17 -19 -35 -44 -22 0
-10 -12 -15 -17 -22 -33 -35 -24 0
-10 -12 -16 -17 -19 -34 -45 -24 0
-10 -12 -16 -17 -19 -35 -45 -23 0
-10 -12 -16 -17 -23 -34 -35 -24 0
-10 -13 -14 -15 -20 -36 -40 -22 0
-10 -13 -14 -15 -20 -37 -40 -21 0
-10 -13 -14 -15 -21 -36 -37 -22 0
-10 -13 -14 -16 -20 -36 -41 -23 0
-10 -13 -14 -16 -20 -38 -41 -21 0
-10 -13 -14 -16 -21 -36 -38 -23 0
-10 -13 -14 -17 -20 -36 -42 -24 0
-10 -13 -14 -17 -20 -39 -42 -21 0
-10 -13 -14 -17 -21 -36 -39 -24 0
-10 -13 -15 -16 -20 -37 -43 -23 0
-10 -13 -15 -16 -20 -38 -43 -22 0
-10 -13 -15 -16 -22 -37 -38 -23 0
-10 -13 -15 -17 -20 -37 -44 -24 0
-10 -13 -15 -17 -20 -39 -44 -22 0
-10 -13 -15 -17 -22 -37 -39 -24 0
-10 -13 -16 -17 -20 -38 -45 -24 0
-10 -13 -16 -17 -20 -39 -45 -23 0
-10 -13 -16 -17 -23 -38 -39 -24 0
-10 -14 -15 -16 -21 -40 -43 -23 0
-10 -14 -15 -16 -21 -41 -43 -22 0
-10 -14 -15 -16 -22 -40 -41 -23 0
-10 -14 -15 -17 -21 -40 -44 -24 0
-10 -14 -15 -17 -21 -42 -44 -22 0
-10 -14 -15 -17 -22 -40 -42 -24 0
-10 -14 -16 -17 -21 -41 -45 -24 0
-10 -14 -16 -17 -21 -42 -45 -23 0
-10 -14 -16 -17 -23 -41 -42 -24 0
-10 -15 -16 -17 -22 -43 -45 -24 0
-10 -15 -16 -17 -22 -44 -45 -23 0
-10 -15 -16 -17 -23 -43 -44 -24 0
-11 -12 -13 -14 -25 -31 -36 -27 0
-11 -12 -13 -14 -25 -32 -36 -26 0
-11 -12 -13 -14 -26 -31 -32 -27 0
-11 -12 -13 -15 -25 -31 -37 -28 0
-11 -12 -13 -15 -25 -33 -37 -26 0
-11 -12 -13 -15 -26 -31 -33 -28 0
-11 -12 -13 -16 -25 -31 -38 -29 0
-11 -12 -13 -16 -25 -34 -38 -26 0
-11 -12 -13 -16 -26 -31 -34 -29 0
-11 -12 -13 -17 -25 -31 -39 -30 0
-11 -12 -13 -17 -25 -35 -39 -26 0
-11 -12 -13 -17 -26 -31 -35 -30 0
-11 -12 -14 -15 -25 -32 -40 -28 0
-11 -12 -14 -15 -25 -33 -40 -27 0
-11 -12 -14 -15 -27 -32 -33 -28 0
-11 -12 -14 -16 -25 -32 -41 -29 0
-11 -12 -14 -16 -25 -34 -41 -27 0
-11 -12 -14 -16 -27 -32 -34 -29 0
-11 -12 -14 -17 -25 -32 -42 -30 0
-11 -12 -14 -17 -25 -35 -42 -27 0
-11 -12 -14 -17 -27 -32 -35 -30 0
-11 -12 -15 -16 -25 -33 -43 -29 0
-11 -12 -15 -16 -25 -34 -43 -28 0
-11 -12 -15 -16 -28 -33 -34 -29 0
-11 -12 -15 -17 -25 -33 -44 -30 0
-11 -12 -15 -17 -25 -35 -44 -28 0
-11 -12 -15 -17 -28 -33 -35 -30 0
-11 -12 -16 -17 -25 -34 -45 -30 0
-11 -12 -16 -17 -25 -35 -45 -29 0
-11 -12 -16 -17 -29 -34 -35 -30 0
-11 -13 -14 -15 -26 -36 -40 -28 0
-11 -13 -14 -15 -26 -37 -40 -27 0
-11 -13 -14 -15 -27 -36 -37 -28 0
-11 -13 -14 -16 -26 -36 -41 -29 0
-11 -13 -14 -16 -26 -38 -41 -27 0
-11 -13 -14 -16 -27 -36 -38 -29 0
-11 -13 -14 -17 -26 -36 -42 -30 0
-11 -13 -14 -17 -26 -39 -42 -27 0
-11 -13 -14 -17 -27 -36 -39 -30 0
-11 -13 -15 -16 -26 -37 -43 -29 0
-11 -13 -15 -16 -26 -38 -43 -28 0
-11 -13 -15 -16 -28 -37 -38 -29 0
-11 -13 -15 -17 -26 -37 -44 -30 0
-11 -13 -15 -17 -26 -39 -44 -28 0
-11 -13 -15 -17 -28 -37 -39 -30 0
-11 -13 -16 -17 -26 -38 -45 -30 0
-11 -13 -16 -17 -26 -39 -45 -29 0
-11 -13 -16 -17 -29 -38 -39 -30 0
-11 -14 -15 -16 -27 -40 -43 -29 0
-11 -14 -15 -16 -27 -41 -43 -28 0
-11 -14 -15 -16 -28 -40 -41 -29 0
-11 -14 -15 -17 -27 -40 -44 -30 0
-11 -14 -15 -17 -27 -42 -44 -28 0
-11 -14 -15 -17 -28 -40 -42 -30 0
-11 -14 -16 -17 -27 -41 -45 -30 0
-11 -14 -16 -17 -27 -42 -45 -29 0
-11 -14 -16 -17 -29 -41 -42 -30 0
-11 -15 -16 -17 -28 -43 -45 -30 0
-11 -15 -16 -17 -28 -44 -45 -29 0
-11 -15 -16 -17 -29 -43 -44 -30 0
-12 -13 -14 -15 -31 -36 -40 -33 0
-12 -13 -14 -15 -31 -37 -40 -32 0
-12 -13 -14 -15 -32 -36 -37 -33 0
-12 -13 -14 -16 -31 -36 -41 -34 0
-12 -13 -14 -16 -31 -38 -41 -32 0
-12 -13 -14 -16 -32 -36 -38 -34 0
-12 -13 -14 -17 -31 -36 -42 -35 0
-12 -13 -14 -17 -31 -39 -42 -32 0
-12 -13 -14 -17 -32 -36 -39 -35 0
-12 -13 -15 -16 -31 -37 -43 -34 0
-12 -13 -15 -16 -31 -38 -43 -33 0
-12 -13 -15 -16 -33 -37 -38 -34 0
-12 -13 -15 -17 -31 -37 -44 -35 0
-12 -13 -15 -17 -31 -39 -44 -33 0
-12 -13 -15 -17 -33 -37 -39 -35 0
-12 -13 -16 -17 -31 -38 -45 -35 0
-12 -13 -16 -17 -31 -39 -45 -34 0
-12 -13 -16 -17 -34 -38 -39 -35 0
-12 -14 -15 -16 -32 -40 -43 -34 0
-12 -14 -15 -16 -32 -41 -43 -33 0
-12 -14 -15 -16 -33 -40 -41 -34 0
-12 -14 -15 -17 -32 -40 -44 -35 0
-12 -14 -15 -17 -32 -42 -44 -33 0
-12 -14 -15 -17 -33 -40 -42 -35 0
-12 -14 -16 -17 -32 -41 -45 -35 0
-12 -14 -16 -17 -32 -42 -45 -34 0
-12 -14 -16 -17 -34 -41 -42 -35 0
-12 -15 -16 -17 -33 -43 -45 -35 0
-12 -15 -16 -17 -33 -44 -45 -34 0
-12 -15 -16 -17 -34 -43 -44 -35 0
-13 -14 -15 -16 -36 -40 -43 -38 0
-13 -14 -15 -16 -36 -41 -43 -37 0
-13 -14 -15 -16 -37 -40 -41 -38 0
-13 -14 -15 -17 -36 -40 -44 -39 0
-13 -14 -15 -17 -36 -42 -44 -37 0
-13 -14 -15 -17 -37 -40 -42 -39 0
-13 -14 -16 -17 -36 -41 -45 -39 0
-13 -14 -16 -17 -36 -42 -45 -38 0
-13 -14 -16 -17 -38 -41 -42 -39 0
-13 -15 -16 -17 -37 -43 -45 -39 0
-13 -15 -16 -17 -37 -44 -45 -38 0
-13 -15 -16 -17 -38 -43 -44 -39 0
-14 -15 -16 -17 -40 -43 -45 -42 0
-14 -15 -16 -17 -40 -44 -45 -41 0
-14 -15 -16 -17 -41 -43 -44 -42 0
-2 -10 -18 -19 -1 -11 -25 -4 0
-2 -10 -18 -19 -1 -12 -25 -3 0
-2 -10 -18 -19 -3 -11 -12 -4 0
-2 -10 -18 -20 -1 -11 -26 -5 0
-2 -10 -18 -20 -1 -13 -26 -3 0
-2 -10 -18 -20 -3 -11 -13 -5 0
-2 -10 -18 -21 -1 -11 -27 -6 0
-2 -10 -18 -21 -1 -14 -27 -3 0
-2 -10 -18 -21 -3 -11 -14 -6 0
-2 -10 -18 -22 -1 -11 -28 -7 0
-2 -10 -18 -22 -1 -15 -28 -3 0
-2 -10 -18 -22 -3 -11 -15 -7 0
-2 -10 -18 -23 -1 -11 -29 -8 0
-2 -10 -18 -23 -1 -16 -29 -3 0
-2 -10 -18 -23 -3 -11 -16 -8 0
-2 -10 -18 -24 -1 -11 -30 -9 0
-2 -10 -18 -24 -1 -17 -30 -3 0
-2 -10 -18 -24 -3 -11 -17 -9 0
-2 -10 -19 -20 -1 -12 -31 -5 0
-2 -10 -19 -20 -1 -13 -31 -4 0
-2 -10 -19 -20 -4 -12 -13 -5 0
-2 -10 -19 -21 -1 -12 -32 -6 0
-2 -10 -19 -21 -1 -14 -32 -4 0
-2 -10 -19 -21 -4 -12 -14 -6 0
-2 -10 -19 -22 -1 -12 -33 -7 0
-2 -10 -19 -22 -1 -15 -33 -4 0
-2 -10 -19 -22 -4 -12 -15 -7 0
-2 -10 -19 -23 -1 -12 -34 -8 0
-2 -10 -19 -23 -1 -16 -34 -4 0
-2 -10 -19 -23 -4 -12 -16 -8 0
-2 -10 -19 -24 -1 -12 -35 -9 0
-2 -10 -19 -24 -1 -17 -35 -4 0
-2 -10 -19 -24 -4 -12 -17 -9 0
-2 -10 -20 -21 -1 -13 -36 -6 0
-2 -10 -20 -21 -1 -14 -36 -5 0
-2 -10 -20 -21 -5 -13 -14 -6 0
-2 -10 -20 -22 -1 -13 -37 -7 0
-2 -10 -20 -22 -1 -15 -37 -5 0
-2 -10 -20 -22 -5 -13 -15 -7 0
-2 -10 -20 -23 -1 -13 -38 -8 0
-2 -10 -20 -23 -1 -16 -38 -5 0
-2 -10 -20 -23 -5 -13 -16 -8 0
-2 -10 -20 -24 -1 -13 -39 -9 0
-2 -10 -20 -24 -1 -17 -39 -5 0
-2 -10 -20 -24 -5 -13 -17 -9 0
-2 -10 -21 -22 -1 -14 -40 -7 0
-2 -10 -21 -22 -1 -15 -40 -6 0
-2 -10 -21 -22 -6 -14 -15 -7 0
-2 -10 -21 -23 -1 -14 -41 -8 0
-2 -10 -21 -23 -1 -16 -41 -6 0
-2 -10 -21 -23 -6 -14 -16 -8 0
-2 -10 -21 -24 -1 -14 -42 -9 0
-2 -10 -21 -24 -1 -17 -42 -6 0
-2 -10 -21 -24 -6 -14 -17 -9 0
-2 -10 -22 -23 -1 -15 -43 -8 0
-2 -10 -22 -23 -1 -16 -43 -7 0
-2 -10 -22 -23 -7 -15 -16 -8 0
-2 -10 -22 -24 -1 -15 -44 -9 0
-2 -10 -22 -24 -1 -17 -44 -7 0
-2 -10 -22 -24 -7 -15 -17 -9 0
-2 -10 -23 -24 -1 -16 -45 -9 0
-2 -10 -23 -24 -1 -17 -45 -8 0
-2 -10 -23 -24 -8 -16 -17 -9 0
-2 -18 -19 -20 -3 -25 -31 -5 0
-2 -18 -19 -20 -3 -26 -31 -4 0
-2 -18 -19 -20 -4 -25 -26 -5 0
-2 -18 -19 -21 -3 -25 -32 -6 0
-2 -18 -19 -21 -3 -27 -32 -4 0
-2 -18 -19 -21 -4 -25 -27 -6 0
-2 -18 -19 -22 -3 -25 -33 -7 0
-2 -18 -19 -22 -3 -28 -33 -4 0
-2 -18 -19 -22 -4 -25 -28 -7 0
-2 -18 -19 -23 -3 -25 -34 -8 0
-2 -18 -19 -23 -3 -29 -34 -4 0
-2 -18 -19 -23 -4 -25 -29 -8 0
-2 -18 -19 -24 -3 -25 -35 -9 0
-2 -18 -19 -24 -3 -30 -35 -4 0
-2 -18 -19 -24 -4 -25 -30 -9 0
-2 -18 -20 -21 -3 -26 -36 -6 0
-2 -18 -20 -21 -3 -27 -36 -5 0
-2 -18 -20 -21 -5 -26 -27 -6 0
-2 -18 -20 -22 -3 -26 -37 -7 0
-2 -18 -20 -22 -3 -28 -37 -5 0
-2 -18 -20 -22 -5 -26 -28 -7 0
-2 -18 -20 -23 -3 -26 -38 -8 0
-2 -18 -20 -23 -3 -29 -38 -5 0
-2 -18 -20 -23 -5 -26 -29 -8 0
-2 -18 -20 -24 -3 -26 -39 -9 0
-2 -18 -20 -24 -3 -30 -39 -5 0
-2 -18 -20 -24 -5 -26 -30 -9 0
-2 -18 -21 -22 -3 -27 -40 -7 0
-2 -18 -21 -22 -3 -28 -40 -6 0
-2 -18 -21 -22 -6 -27 -28 -7 0
-2 -18 -21 -23 -3 -27 -41 -8 0
-2 -18 -21 -23 -3 -29 -41 -6 0
-2 -18 -21 -23 -6 -27 -29 -8 0
-2 -18 -21 -24 -3 -27 -42 -9 0
-2 -18 -21 -24 -3 -30 -42 -6 0
-2 -18 -21 -24 -6 -27 -30 -9 0
-2 -18 -22 -23 -3 -28 -43 -8 0
-2 -18 -22 -23 -3 -29 -43 -7 0
-2 -18 -22 -23 -7 -28 -29 -8 0
-2 -18 -22 -24 -3 -28 -44 -9 0
-2 -18 -22 -24 -3 -30 -44 -7 0
-2 -18 -22 -24 -7 -28 -30 -9 0
-2 -18 -23 -24 -3 -29 -45 -9 0
-2 -18 -23 -24 -3 -30 -45 -8 0
-2 -18 -23 -24 -8 -29 -30 -9 0
-2 -19 -20 -21 -4 -31 -36 -6 0
-2 -19 -20 -21 -4 -32 -36 -5 0
-2 -19 -20 -21 -5 -31 -32 -6 0
-2 -19 -20 -22 -4 -31 -37 -7 0
-2 -19 -20 -22 -4 -33 -37 -5 0
-2 -19 -20 -22 -5 -31 -33 -7 0
-2 -19 -20 -23 -4 -31 -38 -8 0
-2 -19 -20 -23 -4 -34 -38 -5 0
-2 -19 -20 -23 -5 -31 -34 -8 0
-2 -19 -20 -24 -4 -31 -39 -9 0
-2 -19 -20 -24 -4 -35 -39 -5 0
-2 -19 -20 -24 -5 -31 -35 -9 0
-2 -19 -21 -22 -4 -32 -40 -7 0
-2 -19 -21 -22 -4 -33 -40 -6 0
-2 -19 -21 -22 -6 -32 -33 -7 0
-2 -19 -21 -23 -4 -32 -41 -8 0
-2 -19 -21 -23 -4 -34 -41 -6 0
-2 -19 -21 -23 -6 -32 -34 -8 0
-2 -19 -21 -24 -4 -32 -42 -9 0
-2 -19 -21 -24 -4 -35 -42 -6 0
-2 -19 -21 -24 -6 -32 -35 -9 0
-2 -19 -22 -23 -4 -33 -43 -8 0
-2 -19 -22 -23 -4 -34 -43 -7 0
-2 -19 -22 -23 -7 -33 -34 -8 0
-2 -19 -22 -24 -4 -33 -44 -9 0
-2 -19 -22 -24 -4 -35 -44 -7 0
-2 -19 -22 -24 -7 -33 -35 -9 0
-2 -19 -23 -24 -4 -34 -45 -9 0
-2 -19 -23 -24 -4 -35 -45 -8 0
-2 -19 -23 -24 -8 -34 -35 -9 0
-2 -20 -21 -22 -5 -36 -40 -7 0
-2 -20 -21 -22 -5 -37 -40 -6 0
-2 -20 -21 -22 -6 -36 -37 -7 0
-2 -20 -21 -23 -5 -36 -41 -8 0
-2 -20 -21 -23 -5 -38 -41 -6 0
-2 -20 -21 -23 -6 -36 -38 -8 0
-2 -20 -21 -24 -5 -36 -42 -9 0
-2 -20 -21 -24 -5 -39 -42 -6 0
-2 -20 -21 -24 -6 -36 -39 -9 0
-2 -20 -22 -23 -5 -37 -43 -8 0
-2 -20 -22 -23 -5 -38 -43 -7 0
-2 -20 -22 -23 -7 -37 -38 -8 0
-2 -20 -22 -24 -5 -37 -44 -9 0
-2 -20 -22 -24 -5 -39 -44 -7 0
-2 -20 -22 -24 -7 -37 -39 -9 0
-2 -20 -23 -24 -5 -38 -45 -9 0
-2 -20 -23 -24 -5 -39 -45 -8 0
-2 -20 -23 -24 -8 -38 -39 -9 0
-2 -21 -22 -23 -6 -40 -43 -8 0
-2 -21 -22 -23 -6 -41 -43 -7 0
-2 -21 -22 -23 -7 -40 -41 -8 0
-2 -21 -22 -24 -6 -40 -44 -9 0
-2 -21 -22 -24 -6 -42 -44 -7 0
-2 -21 -22 -24 -7 -40 -42 -9 0
-2 -21 -23 -24 -6 -41 -45 -9 0
-2 -21 -23 -24 -6 -42 -45 -8 0
-2 -21 -23 -24 -8 -41 -42 -9 0
-2 -22 -23 -24 -7 -43 -45 -9 0
-2 -22 -23 -24 -7 -44 -45 -8 0
-2 -22 -23 -24 -8 -43 -44 -9 0
-10 -18 -19 -20 -11 -25 -31 -13 0
-10 -18 -19 -20 -11 -26 -31 -12 0
-10 -18 -19 -20 -12 -25 -26 -13 0
-10 -18 -19 -21 -11 -25 -32 -14 0
-10 -18 -19 -21 -11 -27 -32 -12 0
-10 -18 -19 -21 -12 -25 -27 -14 0
-10 -18 -19 -22 -11 -25 -33 -15 0
-10 -18 -19 -22 -11 -28 -33 -12 0
-10 -18 -19 -22 -12 -25 -28 -15 0
-10 -18 -19 -23 -11 -25 -34 -16 0
-10 -18 -19 -23 -11 -29 -34 -12 0
-10 -18 -19 -23 -12 -25 -29 -16 0
-10 -18 -19 -24 -11 -25 -35 -17 0
-10 -18 -19 -24 -11 -30 -35 -12 0
-10 -18 -19 -24 -12 -25 -30 -17 0
-10 -18 -20 -21 -11 -26 -36 -14 0
-10 -18 -20 -21 -11 -27 -36 -13 0
-10 -18 -20 -21 -13 -26 -27 -14 0
-10 -18 -20 -22 -11 -26 -37 -15 0
-10 -18 -20 -22 -11 -28 -37 -13 0
-10 -18 -20 -22 -13 -26 -28 -15 0
-10 -18 -20 -23 -11 -26 -38 -16 0
-10 -18 -20 -23 -11 -29 -38 -13 0
-10 -18 -20 -23 -13 -26 -29 -16 0
-10 -18 -20 -24 -11 -26 -39 -17 0
-10 -18 -20 -24 -11 -30 -39 -13 0
-10 -18 -20 -24 -13 -26 -30 -17 0
-10 -18 -21 -22 -11 -27 -40 -15 0
-10 -18 -21 -22 -11 -28 -40 -14 0
-10 -18 -21 -22 -14 -27 -28 -15 0
-10 -18 -21 -23 -11 -27 -41 -16 0
-10 -18 -21 -23 -11 -29 -41 -14 0
-10 -18 -21 -23 -14 -27 -29 -16 0
-10 -18 -21 -24 -11 -27 -42 -17 0
-10 -18 -21 -24 -11 -30 -42 -14 0
-10 -18 -21 -24 -14 -27 -30 -17 0
-10 -18 -22 -23 -11 -28 -43 -16 0
-10 -18 -22 -23 -11 -29 -43 -15 0
-10 -18 -22 -23 -15 -28 -29 -16 0
-10 -18 -22 -24 -11 -28 -44 -17 0
-10 -18 -22 -24 -11 -30 -44 -15 0
-10 -18 -22 -24 -15 -28 -30 -17 0
-10 -18 -23 -24 -11 -29 -45 -17 0
-10 -18 -23 -24 -11 -30 -45 -16 0
-10 -18 -23 -24 -16 -29 -30 -17 0
-10 -19 -20 -21 -12 -31 -36 -14 0
-10 -19 -20 -21 -12 -32 -36 -13 0
-10 -19 -20 -21 -13 -31 -32 -14 0
-10 -19 -20 -22 -12 -31 -37 -15 0
-10 -19 -20 -22 -12 -33 -37 -13 0
-10 -19 -20 -22 -13 -31 -33 -15 0
-10 -19 -20 -23 -12 -31 -38 -16 0
-10 -19 -20 -23 -12 -34 -38 -13 0
-10 -19 -20 -23 -13 -31 -34 -16 0
-10 -19 -20 -24 -12 -31 -39 -17 0
-10 -19 -20 -24 -12 -35 -39 -13 0
-10 -19 -20 -24 -13 -31 -35 -17 0
-10 -19 -21 -22 -12 -32 -40 -15 0
-10 -19 -21 -22 -12 -33 -40 -14 0
-10 -19 -21 -22 -14 -32 -33 -15 0
-10 -19 -21 -23 -12 -32 -41 -16 0
-10 -19 -21 -23 -12 -34 -41 -14 0
-10 -19 -21 -23 -14 -32 -34 -16 0
-10 -19 -21 -24 -12 -32 -42 -17 0
-10 -19 -21 -24 -12 -35 -42 -14 0
-10 -19 -21 -24 -14 -32 -35 -17 0
-10 -19 -22 -23 -12 -33 -43 -16 0
-10 -19 -22 -23 -12 -34 -43 -15 0
-10 -19 -22 -23 -15 -33 -34 -16 0
-10 -19 -22 -24 -12 -33 -44 -17 0
-10 -19 -22 -24 -12 -35 -44 -15 0
-10 -19 -22 -24 -15 -33 -35 -17 0
-10 -19 -23 -24 -12 -34 -45 -17 0
-10 -19 -23 -24 -12 -35 -45 -16 0
-10 -19 -23 -24 -16 -34 -35 -17 0
-10 -20 -21 -22 -13 -36 -40 -15 0
-10 -20 -21 -22 -13 -37 -40 -14 0
-10 -20 -21 -22 -14 -36 -37 -15 0
-10 -20 -21 -23 -13 -36 -41 -16 0
-10 -20 -21 -23 -13 -38 -41 -14 0
-10 -20 -21 -23 -14 -36 -38 -16 0
-10 -20 -21 -24 -13 -36 -42 -17 0
-10 -20 -21 -24 -13 -39 -42 -14 0
-10 -20 -21 -24 -14 -36 -39 -17 0
-10 -20 -22 -23 -13 -37 -43 -16 0
-10 -20 -22 -23 -13 -38 -43 -15 0
-10 -20 -22 -23 -15 -37 -38 -16 0
-10 -20 -22 -24 -13 -37 -44 -17 0
-10 -20 -22 -24 -13 -39 -44 -15 0
-10 -20 -22 -24 -15 -37 -39 -17 0
-10 -20 -23 -24 -13 -38 -45 -17 0
-10 -20 -23 -24 -13 -39 -45 -16 0
-10 -20 -23 -24 -16 -38 -39 -17 0
-10 -21 -22 -23 -14 -40 -43 -16 0
-10 -21 -22 -23 -14 -41 -43 -15 0
-10 -21 -22 -23 -15 -40 -41 -16 0
-10 -21 -22 -24 -14 -40 -44 -17 0
-10 -21 -22 -24 -14 -42 -44 -15 0
-10 -21 -22 -24 -15 -40 -42 -17 0
-10 -21 -23 -24 -14 -41 -45 -17 0
-10 -21 -23 -24 -14 -42 -45 -16 0
-10 -21 -23 -24 -16 -41 -42 -17 0
-10 -22 -23 -24 -15 -43 -45 -17 0
-10 -22 -23 -24 -15 -44 -45 -16 0
-10 -22 -23 -24 -16 -43 -44 -17 0
-18 -19 -20 -21 -25 -31 -36 -27 0
-18 -19 -20 -21 -25 -32 -36 -26 0
-18 -19 -20 -21 -26 -31 -32 -27 0
-18 -19 -20 -22 -25 -31 -37 -28 0
-18 -19 -20 -22 -25 -33 -37 -26 0
-18 -19 -20 -22 -26 -31 -33 -28 0
-18 -19 -20 -23 -25 -31 -38 -29 0
-18 -19 -20 -23 -25 -34 -38 -26 0
-18 -19 -20 -23 -26 -31 -34 -29 0
-18 -19 -20 -24 -25 -31 -39 -30 0
-18 -19 -20 -24 -25 -35 -39 -26 0
-18 -19 -20 -24 -26 -31 -35 -30 0
-18 -19 -21 -22 -25 -32 -40 -28 0
-18 -19 -21 -22 -25 -33 -40 -27 0
-18 -19 -21 -22 -27 -32 -33 -28 0
-18 -19 -21 -23 -25 -32 -41 -29 0
-18 -19 -21 -23 -25 -34 -41 -27 0
-18 -19 -21 -23 -27 -32 -34 -29 0
-18 -19 -21 -24 -25 -32 -42 -30 0
-18 -19 -21 -24 -25 -35 -42 -27 0
-18 -19 -21 -24 -27 -32 -35 -30 0
-18 -19 -22 -23 -25 -33 -43 -29 0
-18 -19 -22 -23 -25 -34 -43 -28 0
-18 -19 -22 -23 -28 -33 -34 -29 0
-18 -19 -22 -24 -25 -33 -44 -30 0
-18 -19 -22 -24 -25 -35 -44 -28 0
-18 -19 -22 -24 -28 -33 -35 -30 0
-18 -19 -23 -24 -25 -34 -45 -30 0
-18 -19 -23 -24 -25 -35 -45 -29 0
-18 -19 -23 -24 -29 -34 -35 -30 0
-18 -20 -21 -22 -26 -36 -40 -28 0
-18 -20 -21 -22 -26 -37 -40 -27 0
-18 -20 -21 -22 -27 -36 -37 -28 0
-18 -20 -21 -23 -26 -36 -41 -29 0
-18 -20 -21 -23 -26 -38 -41 -27 0
-18 -20 -21 -23 -27 -36 -38 -29 0
-18 -20 -21 -24 -26 -36 -42 -30 0
-18 -20 -21 -24 -26 -39 -42 -27 0
-18 -20 -21 -24 -27 -36 -39 -30 0
-18 -20 -22 -23 -26 -37 -43 -29 0
-18 -20 -22 -23 -26 -38 -43 -28 0
-18 -20 -22 -23 -28 -37 -38 -29 0
-18 -20 -22 -24 -26 -37 -44 -30 0
-18 -20 -22 -24 -26 -39 -44 -28 0
-18 -20 -22 -24 -28 -37 -39 -30 0
-18 -20 -23 -24 -26 -38 -45 -30 0
-18 -20 -23 -24 -26 -39 -45 -29 0
-18 -20 -23 -24 -29 -38 -39 -30 0
-18 -21 -22 -23 -27 -40 -43 -29 0
-18 -21 -22 -23 -27 -41 -43 -28 0
-18 -21 -22 -23 -28 -40 -41 -29 0
-18 -21 -22 -24 -27 -40 -44 -30 0
-18 -21 -22 -24 -27 -42 -44 -28 0
-18 -21 -22 -24 -28 -40 -42 -30 0
-18 -21 -23 -24 -27 -41 -45 -30 0
-18 -21 -23 -24 -27 -42 -45 -29 0
-18 -21 -23 -24 -29 -41 -42 -30 0
-18 -22 -23 -24 -28 -43 -45 -30 0
-18 -22 -23 -24 -28 -44 -45 -29 0
-18 -22 -23 -24 -29 -43 -44 -30 0
-19 -20 -21 -22 -31 -36 -40 -33 0
-19 -20 -21 -22 -31 -37 -40 -32 0
-19 -20 -21 -22 -32 -36 -37 -33 0
-19 -20 -21 -23 -31 -36 -41 -34 0
-19 -20 -21 -23 -31 -38 -41 -32 0
-19 -20 -21 -23 -32 -36 -38 -34 0
-19 -20 -21 -24 -31 -36 -42 -35 0
-19 -20 -21 -24 -31 -39 -42 -32 0
-19 -20 -21 -24 -32 -36 -39 -35 0
-19 -20 -22 -23 -31 -37 -43 -34 0
-19 -20 -22 -23 -31 -38 -43 -33 0
-19 -20 -22 -23 -33 -37 -38 -34 0
-19 -20 -22 -24 -31 -37 -44 -35 0
-19 -20 -22 -24 -31 -39 -44 -33 0
-19 -20 -22 -24 -33 -37 -39 -35 0
-19 -20 -23 -24 -31 -38 -45 -35 0
-19 -20 -23 -24 -31 -39 -45 -34 0
-19 -20 -23 -24 -34 -38 -39 -35 0
-19 -21 -22 -23 -32 -40 -43 -34 0
-19 -21 -22 -23 -32 -41 -43 -33 0
-19 -21 -22 -23 -33 -40 -41 -34 0
-19 -21 -22 -24 -32 -40 -44 -35 0
-19 -21 -22 -24 -32 -42 -44 -33 0
-19 -21 -22 -24 -33 -40 -42 -35 0
-19 -21 -23 -24 -32 -41 -45 -35 0
-19 -21 -23 -24 -32 -42 -45 -34 0
-19 -21 -23 -24 -34 -41 -42 -35 0
-19 -22 -23 -24 -33 -43 -45 -35 0
-19 -22 -23 -24 -33 -44 -45 -34 0
-19 -22 -23 -24 -34 -43 -44 -35 0
-20 -21 -22 -23 -36 -40 -43 -38 0
-20 -21 -22 -23 -36 -41 -43 -37 0
-20 -21 -22 -23 -37 -40 -41 -38 0
-20 -21 -22 -24 -36 -40 -44 -39 0
-20 -21 -22 -24 -36 -42 -44 -37 0
-20 -21 -22 -24 -37 -40 -42 -39 0
-20 -21 -23 -24 -36 -41 -45 -39 0
-20 -21 -23 -24 -36 -42 -45 -38 0
-20 -21 -23 -24 -38 -41 -42 -39 0
-20 -22 -23 -24 -37 -43 -45 -39 0
-20 -22 -23 -24 -37 -44 -45 -38 0
-20 -22 -23 -24 -38 -43 -44 -39 0
-21 -22 -23 -24 -40 -43 -45 -42 0
-21 -22 -23 -24 -40 -44 -45 -41 0
-21 -22 -23 -24 -41 -43 -44 -42 0
-3 -11 -18 -25 -1 -10 -19 -4 0
-3 -11 -18 -25 -1 -12 -19 -2 0
-3 -11 -18 -25 -2 -10 -12 -4 0
-3 -11 -18 -26 -1 -10 -20 -5 0
-3 -11 -18 -26 -1 -13 -20 -2 0
-3 -11 -18 -26 -2 -10 -13 -5 0
-3 -11 -18 -27 -1 -10 -21 -6 0
-3 -11 -18 -27 -1 -14 -21 -2 0
-3 -11 -18 -27 -2 -10 -14 -6 0
-3 -11 -18 -28 -1 -10 -22 -7 0
-3 -11 -18 -28 -1 -15 -22 -2 0
-3 -11 -18 -28 -2 -10 -15 -7 0
-3 -11 -18 -29 -1 -10 -23 -8 0
-3 -11 -18 -29 -1 -16 -23 -2 0
-3 -11 -18 -29 -2 -10 -16 -8 0
-3 -11 -18 -30 -1 -10 -24 -9 0
-3 -11 -18 -30 -1 -17 -24 -2 0
-3 -11 -18 -30 -2 -10 -17 -9 0
-3 -11 -25 -26 -1 -12 -31 -5 0
-3 -11 -25 -26 -1 -13 -31 -4 0
-3 -11 -25 -26 -4 -12 -13 -5 0
-3 -11 -25 -27 -1 -12 -32 -6 0
-3 -11 -25 -27 -1 -14 -32 -4 0
-3 -11 -25 -27 -4 -12 -14 -6 0
-3 -11 -25 -28 -1 -12 -33 -7 0
-3 -11 -25 -28 -1 -15 -33 -4 0
-3 -11 -25 -28 -4 -12 -15 -7 0
-3 -11 -25 -29 -1 -12 -34 -8 0
-3 -11 -25 -29 -1 -16 -34 -4 0
-3 -11 -25 -29 -4 -12 -16 -8 0
-3 -11 -25 -30 -1 -12 -35 -9 0
-3 -11 -25 -30 -1 -17 -35 -4 0
-3 -11 -25 -30 -4 -12 -17 -9 0
-3 -11 -26 -27 -1 -13 -36 -6 0
-3 -11 -26 -27 -1 -14 -36 -5 0
-3 -11 -26 -27 -5 -13 -14 -6 0
-3 -11 -26 -28 -1 -13 -37 -7 0
-3 -11 -26 -28 -1 -15 -37 -5 0
-3 -11 -26 -28 -5 -13 -15 -7 0
-3 -11 -26 -29 -1 -13 -38 -8 0
-3 -11 -26 -29 -1 -16 -38 -5 0
-3 -11 -26 -29 -5 -13 -16 -8 0
-3 -11 -26 -30 -1 -13 -39 -9 0
-3 -11 -26 -30 -1 -17 -39 -5 0
-3 -11 -26 -30 -5 -13 -17 -9 0
-3 -11 -27 -28 -1 -14 -40 -7 0
-3 -11 -27 -28 -1 -15 -40 -6 0
-3 -11 -27 -28 -6 -14 -15 -7 0
-3 -11 -27 -29 -1 -14 -41 -8 0
-3 -11 -27 -29 -1 -16 -41 -6 0
-3 -11 -27 -29 -6 -14 -16 -8 0
-3 -11 -27 -30 -1 -14 -42 -9 0
-3 -11 -27 -30 -1 -17 -42 -6 0
-3 -11 -27 -30 -6 -14 -17 -9 0
-3 -11 -28 -29 -1 -15 -43 -8 0
-3 -11 -28 -29 -1 -16 -43 -7 0
-3 -11 -28 -29 -7 -15 -16 -8 0
-3 -11 -28 -30 -1 -15 -44 -9 0
-3 -11 -28 -30 -1 -17 -44 -7 0
-3 -11 -28 -30 -7 -15 -17 -9 0
-3 -11 -29 -30 -1 -16 -45 -9 0
-3 -11 -29 -30 -1 -17 -45 -8 0
-3 -11 -29 -30 -8 -16 -17 -9 0
-3 -18 -25 -26 -2 -19 -31 -5 0
-3 -18 -25 -26 -2 -20 -31 -4 0
-3 -18 -25 -26 -4 -19 -20 -5 0
-3 -18 -25 -27 -2 -19 -32 -6 0
-3 -18 -25 -27 -2 -21 -32 -4 0
-3 -18 -25 -27 -4 -19 -21 -6 0
-3 -18 -25 -28 -2 -19 -33 -7 0
-3 -18 -25 -28 -2 -22 -33 -4 0
-3 -18 -25 -28 -4 -19 -22 -7 0
-3 -18 -25 -29 -2 -19 -34 -8 0
-3 -18 -25 -29 -2 -23 -34 -4 0
-3 -18 -25 -29 -4 -19 -23 -8 0
-3 -18 -25 -30 -2 -19 -35 -9 0
-3 -18 -25 -30 -2 -24 -35 -4 0
-3 -18 -25 -30 -4 -19 -24 -9 0
-3 -18 -26 -27 -2 -20 -36 -6 0
-3 -18 -26 -27 -2 -21 -36 -5 0
-3 -18 -26 -27 -5 -20 -21 -6 0
-3 -18 -26 -28 -2 -20 -37 -7 0
-3 -18 -26 -28 -2 -22 -37 -5 0
-3 -18 -26 -28 -5 -20 -22 -7 0
-3 -18 -26 -29 -2 -20 -38 -8 0
-3 -18 -26 -29 -2 -23 -38 -5 0
-3 -18 -26 -29 -5 -20 -23 -8 0
-3 -18 -26 -30 -2 -20 -39 -9 0
-3 -18 -26 -30 -2 -24 -39 -5 0
-3 -18 -26 -30 -5 -20 -24 -9 0
-3 -18 -27 -28 -2 -21 -40 -7 0
-3 -18 -27 -28 -2 -22 -40 -6 0
-3 -18 -27 -28 -6 -21 -22 -7 0
-3 -18 -27 -29 -2 -21 -41 -8 0
-3 -18 -27 -29 -2 -23 -41 -6 0
-3 -18 -27 -29 -6 -21 -23 -8 0
-3 -18 -27 -30 -2 -21 -42 -9 0
-3 -18 -27 -30 -2 -24 -42 -6 0
-3 -18 -27 -30 -6 -21 -24 -9 0
-3 -18 -28 -29 -2 -22 -43 -8 0
-3 -18 -28 -29 -2 -23 -43 -7 0
-3 -18 -28 -29 -7 -22 -23 -8 0
-3 -18 -28 -30 -2 -22 -44 -9 0
-3 -18 -28 -30 -2 -24 -44 -7 0
-3 -18 -28 -30 -7 -22 -24 -9 0
-3 -18 -29 -30 -2 -23 -45 -9 0
-3 -18 -29 -30 -2 -24 -45 -8 0
-3 -18 -29 -30 -8 -23 -24 -9 0
-3 -25 -26 -27 -4 -31 -36 -6 0
-3 -25 -26 -27 -4 -32 -36 -5 0
-3 -25 -26 -27 -5 -31 -32 -6 0
-3 -25 -26 -28 -4 -31 -37 -7 0
-3 -25 -26 -28 -4 -33 -37 -5 0
-3 -25 -26 -28 -5 -31 -33 -7 0
-3 -25 -26 -29 -4 -31 -38 -8 0
-3 -25 -26 -29 -4 -34 -38 -5 0
-3 -25 -26 -29 -5 -31 -34 -8 0
-3 -25 -26 -30 -4 -31 -39 -9 0
-3 -25 -26 -30 -4 -35 -39 -5 0
-3 -25 -26 -30 -5 -31 -35 -9 0
-3 -25 -27 -28 -4 -32 -40 -7 0
-3 -25 -27 -28 -4 -33 -40 -6 0
-3 -25 -27 -28 -6 -32 -33 -7 0
-3 -25 -27 -29 -4 -32 -41 -8 0
-3 -25 -27 -29 -4 -34 -41 -6 0
-3 -25 -27 -29 -6 -32 -34 -8 0
-3 -25 -27 -30 -4 -32 -42 -9 0
-3 -25 -27 -30 -4 -35 -42 -6 0
-3 -25 -27 -30 -6 -32 -35 -9 0
-3 -25 -28 -29 -4 -33 -43 -8 0
-3 -25 -28 -29 -4 -34 -43 -7 0
-3 -25 -28 -29 -7 -33 -34 -8 0
-3 -25 -28 -30 -4 -33 -44 -9 0
-3 -25 -28 -30 -4 -35 -44 -7 0
-3 -25 -28 -30 -7 -33 -35 -9 0
-3 -25 -29 -30 -4 -34 -45 -9 0
-3 -25 -29 -30 -4 -35 -45 -8 0
-3 -25 -29 -30 -8 -34 -35 -9 0
-3 -26 -27 -28 -5 -36 -40 -7 0
-3 -26 -27 -28 -5 -37 -40 -6 0
-3 -26 -27 -28 -6 -36 -37 -7 0
-3 -26 -27 -29 -5 -36 -41 -8 0
-3 -26 -27 -29 -5 -38 -41 -6 0
-3 -26 -27 -29 -6 -36 -38 -8 0
-3 -26 -27 -30 -5 -36 -42 -9 0
-3 -26 -27 -30 -5 -39 -42 -6 0
-3 -26 -27 -30 -6 -36 -39 -9 0
-3 -26 -28 -29 -5 -37 -43 -8 0
-3 -26 -28 -29 -5 -38 -43 -7 0
-3 -26 -28 -29 -7 -37 -38 -8 0
-3 -26 -28 -30 -5 -37 -44 -9 0
-3 -26 -28 -30 -5 -39 -44 -7 0
-3 -26 -28 -30 -7 -37 -39 -9 0
-3 -26 -29 -30 -5 -38 -45 -9 0
-3 -26 -29 -30 -5 -39 -45 -8 0
-3 -26 -29 -30 -8 -38 -39 -9 0
-3 -27 -28 -29 -6 -40 -43 -8 0
-3 -27 -28 -29 -6 -41 -43 -7 0
-3 -27 -28 -29 -7 -40 -41 -8 0
-3 -27 -28 -30 -6 -40 -44 -9 0
-3 -27 -28 -30 -6 -42 -44 -7 0
-3 -27 -28 -30 -7 -40 -42 -9 0
-3 -27 -29 -30 -6 -41 -45 -9 0
-3 -27 -29 -30 -6 -42 -45 -8 0
-3 -27 -29 -30 -8 -41 -42 -9 0
-3 -28 -29 -30 -7 -43 -45 -9 0
-3 -28 -29 -30 -7 -44 -45 -8 0
-3 -28 -29 -30 -8 -43 -44 -9 0
-11 -18 -25 -26 -10 -19 -31 -13 0
-11 -18 -25 -26 -10 -20 -31 -12 0
-11 -18 -25 -26 -12 -19 -20 -13 0
-11 -18 -25 -27 -10 -19 -32 -14 0
-11 -18 -25 -27 -10 -21 -32 -12 0
-11 -18 -25 -27 -12 -19 -21 -14 0
-11 -18 -25 -28 -10 -19 -33 -15 0
-11 -18 -25 -28 -10 -22 -33 -12 0
-11 -18 -25 -28 -12 -19 -22 -15 0
-11 -18 -25 -29 -10 -19 -34 -16 0
-11 -18 -25 -29 -10 -23 -34 -12 0
-11 -18 -25 -29 -12 -19 -23 -16 0
-11 -18 -25 -30 -10 -19 -35 -17 0
-11 -18 -25 -30 -10 -24 -35 -12 0
-11 -18 -25 -30 -12 -19 -24 -17 0
-11 -18 -26 -27 -10 -20 -36 -14 0
-11 -18 -26 -27 -10 -21 -36 -13 0
-11 -18 -26 -27 -13 -20 -21 -14 0
-11 -18 -26 -28 -10 -20 -37 -15 0
-11 -18 -26 -28 -10 -22 -37 -13 0
-11 -18 -26 -28 -13 -20 -22 -15 0
-11 -18 -26 -29 -10 -20 -38 -16 0
-11 -18 -26 -29 -10 -23 -38 -13 0
-11 -18 -26 -29 -13 -20 -23 -16 0
-11 -18 -26 -30 -10 -20 -39 -17 0
-11 -18 -26 -30 -10 -24 -39 -13 0
-11 -18 -26 -30 -13 -20 -24 -17 0
-11 -18 -27 -28 -10 -21 -40 -15 0
-11 -18 -27 -28 -10 -22 -40 -14 0
-11 -18 -27 -28 -14 -21 -22 -15 0
-11 -18 -27 -29 -10 -21 -41 -16 0
-11 -18 -27 -29 -10 -23 -41 -14 0
-11 -18 -27 -29 -14 -21 -23 -16 0
-11 -18 -27 -30 -10 -21 -42 -17 0
-11 -18 -27 -30 -10 -24 -42 -14 0
-11 -18 -27 -30 -14 -21 -24 -17 0
-11 -18 -28 -29 -10 -22 -43 -16 0
-11 -18 -28 -29 -10 -23 -43 -15 0
-11 -18 -28 -29 -15 -22 -23 -16 0
-11 -18 -28 -30 -10 -22 -44 -17 0
-11 -18 -28 -30 -10 -24 -44 -15 0
-11 -18 -28 -30 -15 -22 -24 -17 0
-11 -18 -29 -30 -10 -23 -45 -17 0
-11 -18 -29 -30 -10 -24 -45 -16 0
-11 -18 -29 -30 -16 -23 -24 -17 0
-11 -25 -26 -27 -12 -31 -36 -14 0
-11 -25 -26 -27 -12 -32 -36 -13 0
-11 -25 -26 -27 -13 -31 -32 -14 0
-11 -25 -26 -28 -12 -31 -37 -15 0
-11 -25 -26 -28 -12 -33 -37 -13 0
-11 -25 -26 -28 -13 -31 -33 -15 0
-11 -25 -26 -29 -12 -31 -38 -16 0
-11 -25 -26 -29 -12 -34 -38 -13 0
-11 -25 -26 -29 -13 -31 -34 -16 0
-11 -25 -26 -30 -12 -31 -39 -17 0
-11 -25 -26 -30 -12 -35 -39 -13 0
-11 -25 -26 -30 -13 -31 -35 -17 0
-11 -25 -27 -28 -12 -32 -40 -15 0
-11 -25 -27 -28 -12 -33 -40 -14 0
-11 -25 -27 -28 -14 -32 -33 -15 0
-11 -25 -27 -29 -12 -32 -41 -16 0
-11 -25 -27 -29 -12 -34 -41 -14 0
-11 -25 -27 -29 -14 -32 -34 -16 0
-11 -25 -27 -30 -12 -32 -42 -17 0
-11 -25 -27 -30 -12 -35 -42 -14 0
-11 -25 -27 -30 -14 -32 -35 -17 0
-11 -25 -28 -29 -12 -33 -43 -16 0
-11 -25 -28 -29 -12 -34 -43 -15 0
-11 -25 -28 -29 -15 -33 -34 -16 0
-11 -25 -28 -30 -12 -33 -44 -17 0
-11 -25 -28 -30 -12 -35 -44 -15 0
-11 -25 -28 -30 -15 -33 -35 -17 0
-11 -25 -29 -30 -12 -34 -45 -17 0
-11 -25 -29 -30 -12 -35 -45 -16 0
-11 -25 -29 -30 -16 -34 -35 -17 0
-11 -26 -27 -28 -13 -36 -40 -15 0
-11 -26 -27 -28 -13 -37 -40 -14 0
-11 -26 -27 -28 -14 -36 -37 -15 0
-11 -26 -27 -29 -13 -36 -41 -16 0
-11 -26 -27 -29 -13 -38 -41 -14 0
-11 -26 -27 -29 -14 -36 -38 -16 0
-11 -26 -27 -30 -13 -36 -42 -17 0
-11 -26 -27 -30 -13 -39 -42 -14 0
-11 -26 -27 -30 -14 -36 -39 -17 0
-11 -26 -28 -29 -13 -37 -43 -16 0
-11 -26 -28 -29 -13 -38 -43 -15 0
-11 -26 -28 -29 -15 -37 -38 -16 0
-11 -26 -28 -30 -13 -37 -44 -17 0
-11 -26 -28 -30 -13 -39 -44 -15 0
-11 -26 -28 -30 -15 -37 -39 -17 0
-11 -26 -29 -30 -13 -38 -45 -17 0
-11 -26 -29 -30 -13 -39 -45 -16 0
-11 -26 -29 -30 -16 -38 -39 -17 0
-11 -27 -28 -29 -14 -40 -43 -16 0
-11 -27 -28 -29 -14 -41 -43 -15 0
-11 -27 -28 -29 -15 -40 -41 -16 0
-11 -27 -28 -30 -14 -40 -44 -17 0
-11 -27 -28 -30 -14 -42 -44 -15 0
-11 -27 -28 -30 -15 -40 -42 -17 0
-11 -27 -29 -30 -14 -41 -45 -17 0
-11 -27 -29 -30 -14 -42 -45 -16 0
-11 -27 -29 -30 -16 -41 -42 -17 0
-11 -28 -29 -30 -15 -43 -45 -17 0
-11 -28 -29 -30 -15 -44 -45 -16 0
-11 -28 -29 -30 -16 -43 -44 -17 0
-18 -25 -26 -27 -19 -31 -36 -21 0
-18 -25 -26 -27 -19 -32 -36 -20 0
-18 -25 -26 -27 -20 -31 -32 -21 0
-18 -25 -26 -28 -19 -31 -37 -22 0
-18 -25 -26 -28 -19 -33 -37 -20 0
-18 -25 -26 -28 -20 -31 -33 -22 0
-18 -25 -26 -29 -19 -31 -38 -23 0
-18 -25 -26 -29 -19 -34 -38 -20 0
-18 -25 -26 -29 -20 -31 -34 -23 0
-18 -25 -26 -30 -19 -31 -39 -24 0
-18 -25 -26 -30 -19 -35 -39 -20 0
-18 -25 -26 -30 -20 -31 -35 -24 0
-18 -25 -27 -28 -19 -32 -40 -22 0
-18 -25 -27 -28 -19 -33 -40 -21 0
-18 -25 -27 -28 -21 -32 -33 -22 0
-18 -25 -27 -29 -19 -32 -41 -23 0
-18 -25 -27 -29 -19 -34 -41 -21 0
-18 -25 -27 -29 -21 -32 -34 -23 0
-18 -25 -27 -30 -19 -32 -42 -24 0
-18 -25 -27 -30 -19 -35 -42 -21 0
-18 -25 -27 -30 -21 -32 -35 -24 0
-18 -25 -28 -29 -19 -33 -43 -23 0
-18 -25 -28 -29 -19 -34 -43 -22 0
-18 -25 -28 -29 -22 -33 -34 -23 0
-18 -25 -28 -30 -19 -33 -44 -24 0
-18 -25 -28 -30 -19 -35 -44 -22 0
-18 -25 -28 -30 -22 -33 -35 -24 0
-18 -25 -29 -30 -19 -34 -45 -24 0
-18 -25 -29 -30 -19 -35 -45 -23 0
-18 -25 -29 -30 -23 -34 -35 -24 0
-18 -26 -27 -28 -20 -36 -40 -22 0
-18 -26 -27 -28 -20 -37 -40 -21 0
-18 -26 -27 -28 -21 -36 -37 -22 0
-18 -26 -27 -29 -20 -36 -41 -23 0
-18 -26 -27 -29 -20 -38 -41 -21 0
-18 -26 -27 -29 -21 -36 -38 -23 0
-18 -26 -27 -30 -20 -36 -42 -24 0
-18 -26 -27 -30 -20 -39 -42 -21 0
-18 -26 -27 -30 -21 -36 -39 -24 0
-18 -26 -28 -29 -20 -37 -43 -23 0
-18 -26 -28 -29 -20 -38 -43 -22 0
-18 -26 -28 -29 -22 -37 -38 -23 0
-18 -26 -28 -30 -20 -37 -44 -24 0
-18 -26 -28 -30 -20 -39 -44 -22 0
-18 -26 -28 -30 -22 -37 -39 -24 0
-18 -26 -29 -30 -20 -38 -45 -24 0
-18 -26 -29 -30 -20 -39 -45 -23 0
-18 -26 -29 -30 -23 -38 -39 -24 0
-18 -27 -28 -29 -21 -40 -43 -23 0
-18 -27 -28 -29 -21 -41 -43 -22 0
-18 -27 -28 -29 -22 -40 -41 -23 0
-18 -27 -28 -30 -21 -40 -44 -24 0
-18 -27 -28 -30 -21 -42 -44 -22 0
-18 -27 -28 -30 -22 -40 -42 -24 0
-18 -27 -29 -30 -21 -41 -45 -24 0
-18 -27 -29 -30 -21 -42 -45 -23 0
-18 -27 -29 -30 -23 -41 -42 -24 0
-18 -28 -29 -30 -22 -43 -45 -24 0
-18 -28 -29 -30 -22 -44 -45 -23 0
-18 -28 -29 -30 -23 -43 -44 -24 0
-25 -26 -27 -28 -31 -36 -40 -33 0
-25 -26 -27 -28 -31 -37 -40 -32 0
-25 -26 -27 -28 -32 -36 -37 -33 0
-25 -26 -27 -29 -31 -36 -41 -34 0
-25 -26 -27 -29 -31 -38 -41 -32 0
-25 -26 -27 -29 -32 -36 -38 -34 0
-25 -26 -27 -30 -31 -36 -42 -35 0
-25 -26 -27 -30 -31 -39 -42 -32 0
-25 -26 -27 -30 -32 -36 -39 -35 0
-25 -26 -28 -29 -31 -37 -43 -34 0
-25 -26 -28 -29 -31 -38 -43 -33 0
-25 -26 -28 -29 -33 -37 -38 -34 0
-25 -26 -28 -30 -31 -37 -44 -35 0
-25 -26 -28 -30 -31 -39 -44 -33 0
-25 -26 -28 -30 -33 -37 -39 -35 0
-25 -26 -29 -30 -31 -38 -45 -35 0
-25 -26 -29 -30 -31 -39 -45 -34 0
-25 -26 -29 -30 -34 -38 -39 -35 0
-25 -27 -28 -29 -32 -40 -43 -34 0
-25 -27 -28 -29 -32 -41 -43 -33 0
-25 -27 -28 -29 -33 -40 -41 -34 0
-25 -27 -28 -30 -32 -40 -44 -35 0
-25 -27 -28 -30 -32 -42 -44 -33 0
-25 -27 -28 -30 -33 -40 -42 -35 0
-25 -27 -29 -30 -32 -41 -45 -35 0
-25 -27 -29 -30 -32 -42 -45 -34 0
-25 -27 -29 -30 -34 -41 -42 -35 0
-25 -28 -29 -30 -33 -43 -45 -35 0
-25 -28 -29 -30 -33 -44 -45 -34 0
-25 -28 -29 -30 -34 -43 -44 -35 0
-26 -27 -28 -29 -36 -40 -43 -38 0
-26 -27 -28 -29 -36 -41 -43 -37 0
-26 -27 -28 -29 -37 -40 -41 -38 0
-26 -27 -28 -30 -36 -40 -44 -39 0
-26 -27 -28 -30 -36 -42 -44 -37 0
-26 -27 -28 -30 -37 -40 -42 -39 0
-26 -27 -29 -30 -36 -41 -45 -39 0
-26 -27 -29 -30 -36 -42 -45 -38 0
-26 -27 -29 -30 -38 -41 -42 -39 0
-26 -28 -29 -30 -37 -43 -45 -39 0
-26 -28 -29 -30 -37 -44 -45 -38 0
-26 -28 -29 -30 -38 -43 -44 -39 0
-27 -28 -29 -30 -40 -43 -45 -42 0
-27 -28 -29 -30 -40 -44 -45 -41 0
-27 -28 -29 -30 -41 -43 -44 -42 0
-4 -12 -19 -25 -1 -10 -18 -3 0
-4 -12 -19 -25 -1 -11 -18 -2 0
-4 -12 -19 -25 -2 -10 -11 -3 0
-4 -12 -19 -31 -1 -10 -20 -5 0
-4 -12 -19 -31 -1 -13 -20 -2 0
-4 -12 -19 -31 -2 -10 -13 -5 0
-4 -12 -19 -32 -1 -10 -21 -6 0
-4 -12 -19 -32 -1 -14 -21 -2 0
-4 -12 -19 -32 -2 -10 -14 -6 0
-4 -12 -19 -33 -1 -10 -22 -7 0
-4 -12 -19 -33 -1 -15 -22 -2 0
-4 -12 -19 -33 -2 -10 -15 -7 0
-4 -12 -19 -34 -1 -10 -23 -8 0
-4 -12 -19 -34 -1 -16 -23 -2 0
-4 -12 -19 -34 -2 -10 -16 -8 0
-4 -12 -19 -35 -1 -10 -24 -9 0
-4 -12 -19 -35 -1 -17 -24 -2 0
-4 -12 -19 -35 -2 -10 -17 -9 0
-4 -12 -25 -31 -1 -11 -26 -5 0
-4 -12 -25 -31 -1 -13 -26 -3 0
-4 -12 -25 -31 -3 -11 -13 -5 0
-4 -12 -25 -32 -1 -11 -27 -6 0
-4 -12 -25 -32 -1 -14 -27 -3 0
-4 -12 -25 -32 -3 -11 -14 -6 0
-4 -12 -25 -33 -1 -11 -28 -7 0
-4 -12 -25 -33 -1 -15 -28 -3 0
-4 -12 -25 -33 -3 -11 -15 -7 0
-4 -12 -25 -34 -1 -11 -29 -8 0
-4 -12 -25 -34 -1 -16 -29 -3 0
-4 -12 -25 -34 -3 -11 -16 -8 0
-4 -12 -25 -35 -1 -11 -30 -9 0
-4 -12 -25 -35 -1 -17 -30 -3 0
-4 -12 -25 -35 -3 -11 -17 -9 0
-4 -12 -31 -32 -1 -13 -36 -6 0
-4 -12 -31 -32 -1 -14 -36 -5 0
-4 -12 -31 -32 -5 -13 -14 -6 0
-4 -12 -31 -33 -1 -13 -37 -7 0
-4 -12 -31 -33 -1 -15 -37 -5 0
-4 -12 -31 -33 -5 -13 -15 -7 0
-4 -12 -31 -34 -1 -13 -38 -8 0
-4 -12 -31 -34 -1 -16 -38 -5 0
-4 -12 -31 -34 -5 -13 -16 -8 0
-4 -12 -31 -35 -1 -13 -39 -9 0
-4 -12 -31 -35 -1 -17 -39 -5 0
-4 -12 -31 -35 -5 -13 -17 -9 0
-4 -12 -32 -33 -1 -14 -40 -7 0
-4 -12 -32 -33 -1 -15 -40 -6 0
-4 -12 -32 -33 -6 -14 -15 -7 0
-4 -12 -32 -34 -1 -14 -41 -8 0
-4 -12 -32 -34 -1 -16 -41 -6 0
-4 -12 -32 -34 -6 -14 -16 -8 0
-4 -12 -32 -35 -1 -14 -42 -9 0
-4 -12 -32 -35 -1 -17 -42 -6 0
-4 -12 -32 -35 -6 -14 -17 -9 0
-4 -12 -33 -34 -1 -15 -43 -8 0
-4 -12 -33 -34 -1 -16 -43 -7 0
-4 -12 -33 -34 -7 -15 -16 -8 0
-4 -12 -33 -35 -1 -15 -44 -9 0
-4 -12 -33 -35 -1 -17 -44 -7 0
-4 -12 -33 -35 -7 -15 -17 -9 0
-4 -12 -34 -35 -1 -16 -45 -9 0
-4 -12 -34 -35 -1 -17 -45 -8 0
-4 -12 -34 -35 -8 -16 -17 -9 0
-4 -19 -25 -31 -2 -18 -26 -5 0
-4 -19 -25 -31 -2 -20 -26 -3 0
-4 -19 -25 -31 -3 -18 -20 -5 0
-4 -19 -25 -32 -2 -18 -27 -6 0
-4 -19 -25 -32 -2 -21 -27 -3 0
-4 -19 -25 -32 -3 -18 -21 -6 0
-4 -19 -25 -33 -2 -18 -28 -7 0
-4 -19 -25 -33 -2 -22 -28 -3 0
-4 -19 -25 -33 -3 -18 -22 -7 0
-4 -19 -25 -34 -2 -18 -29 -8 0
-4 -19 -25 -34 -2 -23 -29 -3 0
-4 -19 -25 -34 -3 -18 -23 -8 0
-4 -19 -25 -35 -2 -18 -30 -9 0
-4 -19 -25 -35 -2 -24 -30 -3 0
-4 -19 -25 -35 -3 -18 -24 -9 0
-4 -19 -31 -32 -2 -20 -36 -6 0
-4 -19 -31 -32 -2 -21 -36 -5 0
-4 -19 -31 -32 -5 -20 -21 -6 0
-4 -19 -31 -33 -2 -20 -37 -7 0
-4 -19 -31 -33 -2 -22 -37 -5 0
-4 -19 -31 -33 -5 -20 -22 -7 0
-4 -19 -31 -34 -2 -20 -38 -8 0
-4 -19 -31 -34 -2 -23 -38 -5 0
-4 -19 -31 -34 -5 -20 -23 -8 0
-4 -19 -31 -35 -2 -20 -39 -9 0
-4 -19 -31 -35 -2 -24 -39 -5 0
-4 -19 -31 -35 -5 -20 -24 -9 0
-4 -19 -32 -33 -2 -21 -40 -7 0
-4 -19 -32 -33 -2 -22 -40 -6 0
-4 -19 -32 -33 -6 -21 -22 -7 0
-4 -19 -32 -34 -2 -21 -41 -8 0
-4 -19 -32 -34 -2 -23 -41 -6 0
-4 -19 -32 -34 -6 -21 -23 -8 0
-4 -19 -32 -35 -2 -21 -42 -9 0
-4 -19 -32 -35 -2 -24 -42 -6 0
-4 -19 -32 -35 -6 -21 -24 -9 0
-4 -19 -33 -34 -2 -22 -43 -8 0
-4 -19 -33 -34 -2 -23 -43 -7 0
-4 -19 -33 -34 -7 -22 -23 -8 0
-4 -19 -33 -35 -2 -22 -44 -9 0
-4 -19 -33 -35 -2 -24 -44 -7 0
-4 -19 -33 -35 -7 -22 -24 -9 0
-4 -19 -34 -35 -2 -23 -45 -9 0
-4 -19 -34 -35 -2 -24 -45 -8 0
-4 -19 -34 -35 -8 -23 -24 -9 0
-4 -25 -31 -32 -3 -26 -36 -6 0
-4 -25 -31 -32 -3 -27 -36 -5 0
-4 -25 -31 -32 -5 -26 -27 -6 0
-4 -25 -31 -33 -3 -26 -37 -7 0
-4 -25 -31 -33 -3 -28 -37 -5 0
-4 -25 -31 -33 -5 -26 -28 -7 0
-4 -25 -31 -34 -3 -26 -38 -8 0
-4 -25 -31 -34 -3 -29 -38 -5 0
-4 -25 -31 -34 -5 -26 -29 -8 0
-4 -25 -31 -35 -3 -26 -39 -9 0
-4 -25 -31 -35 -3 -30 -39 -5 0
-4 -25 -31 -35 -5 -26 -30 -9 0
-4 -25 -32 -33 -3 -27 -40 -7 0
-4 -25 -32 -33 -3 -28 -40 -6 0
-4 -25 -32 -33 -6 -27 -28 -7 0
-4 -25 -32 -34 -3 -27 -41 -8 0
-4 -25 -32 -34 -3 -29 -41 -6 0
-4 -25 -32 -34 -6 -27 -29 -8 0
-4 -25 -32 -35 -3 -27 -42 -9 0
-4 -25 -32 -35 -3 -30 -42 -6 0
-4 -25 -32 -35 -6 -27 -30 -9 0
-4 -25 -33 -34 -3 -28 -43 -8 0
-4 -25 -33 -34 -3 -29 -43 -7 0
-4 -25 -33 -34 -7 -28 -29 -8 0
-4 -25 -33 -35 -3 -28 -44 -9 0
-4 -25 -33 -35 -3 -30 -44 -7 0
-4 -25 -33 -35 -7 -28 -30 -9 0
-4 -25 -34 -35 -3 -29 -45 -9 0
-4 -25 -34 -35 -3 -30 -45 -8 0
-4 -25 -34 -35 -8 -29 -30 -9 0
-4 -31 -32 -33 -5 -36 -40 -7 0
-4 -31 -32 -33 -5 -37 -40 -6 0
-4 -31 -32 -33 -6 -36 -37 -7 0
-4 -31 -32 -34 -5 -36 -41 -8 0
-4 -31 -32 -34 -5 -38 -41 -6 0
-4 -31 -32 -34 -6 -36 -38 -8 0
-4 -31 -32 -35 -5 -36 -42 -9 0
-4 -31 -32 -35 -5 -39 -42 -6 0
-4 -31 -32 -35 -6 -36 -39 -9 0
-4 -31 -33 -34 -5 -37 -43 -8 0
-4 -31 -33 -34 -5 -38 -43 -7 0
-4 -31 -33 -34 -7 -37 -38 -8 0
-4 -31 -33 -35 -5 -37 -44 -9 0
-4 -31 -33 -35 -5 -39 -44 -7 0
-4 -31 -33 -35 -7 -37 -39 -9 0
-4 -31 -34 -35 -5 -38 -45 -9 0
-4 -31 -34 -35 -5 -39 -45 -8 0
-4 -31 -34 -35 -8 -38 -39 -9 0
-4 -32 -33 -34 -6 -40 -43 -8 0
-4 -32 -33 -34 -6 -41 -43 -7 0
-4 -32 -33 -34 -7 -40 -41 -8 0
-4 -32 -33 -35 -6 -40 -44 -9 0
-4 -32 -33 -35 -6 -42 -44 -7 0
-4 -32 -33 -35 -7 -40 -42 -9 0
-4 -32 -34 -35 -6 -41 -45 -9 0
-4 -32 -34 -35 -6 -42 -45 -8 0
-4 -32 -34 -35 -8 -41 -42 -9 0
-4 -33 -34 -35 -7 -43 -45 -9 0
-4 -33 -34 -35 -7 -44 -45 -8 0
-4 -33 -34 -35 -8 -43 -44 -9 0
-12 -19 -25 -31 -10 -18 -26 -13 0
-12 -19 -25 -31 -10 -20 -26 -11 0
-12 -19 -25 -31 -11 -18 -20 -13 0
-12 -19 -25 -32 -10 -18 -27 -14 0
-12 -19 -25 -32 -10 -21 -27 -11 0
-12 -19 -25 -32 -11 -18 -21 -14 0
-12 -19 -25 -33 -10 -18 -28 -15 0
-12 -19 -25 -33 -10 -22 -28 -11 0
-12 -19 -25 -33 -11 -18 -22 -15 0
-12 -19 -25 -34 -10 -18 -29 -16 0
-12 -19 -25 -34 -10 -23 -29 -11 0
-12 -19 -25 -34 -11 -18 -23 -16 0
-12 -19 -25 -35 -10 -18 -30 -17 0
-12 -19 -25 -35 -10 -24 -30 -11 0
-12 -19 -25 -35 -11 -18 -24 -17 0
-12 -19 -31 -32 -10 -20 -36 -14 0
-12 -19 -31 -32 -10 -21 -36 -13 0
-12 -19 -31 -32 -13 -20 -21 -14 0
-12 -19 -31 -33 -10 -20 -37 -15 0
-12 -19 -31 -33 -10 -22 -37 -13 0
-12 -19 -31 -33 -13 -20 -22 -15 0
-12 -19 -31 -34 -10 -20 -38 -16 0
-12 -19 -31 -34 -10 -23 -38 -13 0
-12 -19 -31 -34 -13 -20 -23 -16 0
-12 -19 -31 -35 -10 -20 -39 -17 0
-12 -19 -31 -35 -10 -24 -39 -13 0
-12 -19 -31 -35 -13 -20 -24 -17 0
-12 -19 -32 -33 -10 -21 -40 -15 0
-12 -19 -32 -33 -10 -22 -40 -14 0
-12 -19 -32 -33 -14 -21 -22 -15 0
-12 -19 -32 -34 -10 -21 -41 -16 0
-12 -19 -32 -34 -10 -23 -41 -14 0
-12 -19 -32 -34 -14 -21 -23 -16 0
-12 -19 -32 -35 -10 -21 -42 -17 0
-12 -19 -32 -35 -10 -24 -42 -14 0
-12 -19 -32 -35 -14 -21 -24 -17 0
-12 -19 -33 -34 -10 -22 -43 -16 0
-12 -19 -33 -34 -10 -23 -43 -15 0
-12 -19 -33 -34 -15 -22 -23 -16 0
-12 -19 -33 -35 -10 -22 -44 -17 0
-12 -19 -33 -35 -10 -24 -44 -15 0
-12 -19 -33 -35 -15 -22 -24 -17 0
-12 -19 -34 -35 -10 -23 -45 -17 0
-12 -19 -34 -35 -10 -24 -45 -16 0
-12 -19 -34 -35 -16 -23 -24 -17 0
-12 -25 -31 -32 -11 -26 -36 -14 0
-12 -25 -31 -32 -11 -27 -36 -13 0
-12 -25 -31 -32 -13 -26 -27 -14 0
-12 -25 -31 -33 -11 -26 -37 -15 0
-12 -25 -31 -33 -11 -28 -37 -13 0
-12 -25 -31 -33 -13 -26 -28 -15 0
-12 -25 -31 -34 -11 -26 -38 -16 0
-12 -25 -31 -34 -11 -29 -38 -13 0
-12 -25 -31 -34 -13 -26 -29 -16 0
-12 -25 -31 -35 -11 -26 -39 -17 0
-12 -25 -31 -35 -11 -30 -39 -13 0
-12 -25 -31 -35 -13 -26 -30 -17 0
-12 -25 -32 -33 -11 -27 -40 -15 0
-12 -25 -32 -33 -11 -28 -40 -14 0
-12 -25 -32 -33 -14 -27 -28 -15 0
-12 -25 -32 -34 -11 -27 -41 -16 0
-12 -25 -32 -34 -11 -29 -41 -14 0
-12 -25 -32 -34 -14 -27 -29 -16 0
-12 -25 -32 -35 -11 -27 -42 -17 0
-12 -25 -32 -35 -11 -30 -42 -14 0
-12 -25 -32 -35 -14 -27 -30 -17 0
-12 -25 -33 -34 -11 -28 -43 -16 0
-12 -25 -33 -34 -11 -29 -43 -15 0
-12 -25 -33 -34 -15 -28 -29 -16 0
-12 -25 -33 -35 -11 -28 -44 -17 0
-12 -25 -33 -35 -11 -30 -44 -15 0
-12 -25 -33 -35 -15 -28 -30 -17 0
-12 -25 -34 -35 -11 -29 -45 -17 0
-12 -25 -34 -35 -11 -30 -45 -16 0
-12 -25 -34 -35 -16 -29 -30 -17 0
-12 -31 -32 -33 -13 -36 -40 -15 0
-12 -31 -32 -33 -13 -37 -40 -14 0
-12 -31 -32 -33 -14 -36 -37 -15 0
-12 -31 -32 -34 -13 -36 -41 -16 0
-12 -31 -32 -34 -13 -38 -41 -14 0
-12 -31 -32 -34 -14 -36 -38 -16 0
-12 -31 -32 -35 -13 -36 -42 -17 0
-12 -31 -32 -35 -13 -39 -42 -14 0
-12 -31 -32 -35 -14 -36 -39 -17 0
-12 -31 -33 -34 -13 -37 -43 -16 0
-12 -31 -33 -34 -13 -38 -43 -15 0
-12 -31 -33 -34 -15 -37 -38 -16 0
-12 -31 -33 -35 -13 -37 -44 -17 0
-12 -31 -33 -35 -13 -39 -44 -15 0
-12 -31 -33 -35 -15 -37 -39 -17 0
-12 -31 -34 -35 -13 -38 -45 -17 0
-12 -31 -34 -35 -13 -39 -45 -16 0
-12 -31 -34 -35 -16 -38 -39 -17 0
-12 -32 -33 -34 -14 -40 -43 -16 0
-12 -32 -33 -34 -14 -41 -43 -15 0
-12 -32 -33 -34 -15 -40 -41 -16 0
-12 -32 -33 -35 -14 -40 -44 -17 0
-12 -32 -33 -35 -14 -42 -44 -15 0
-12 -32 -33 -35 -15 -40 -42 -17 0
-12 -32 -34 -35 -14 -41 -45 -17 0
-12 -32 -34 -35 -14 -42 -45 -16 0
-12 -32 -34 -35 -16 -41 -42 -17 0
-12 -33 -34 -35 -15 -43 -45 -17 0
-12 -33 -34 -35 -15 -44 -45 -16 0
-12 -33 -34 -35 -16 -43 -44 -17 0
-19 -25 -31 -32 -18 -26 -36 -21 0
-19 -25 -31 -32 -18 -27 -36 -20 0
-19 -25 -31 -32 -20 -26 -27 -21 0
-19 -25 -31 -33 -18 -26 -37 -22 0
-19 -25 -31 -33 -18 -28 -37 -20 0
-19 -25 -31 -33 -20 -26 -28 -22 0
-19 -25 -31 -34 -18 -26 -38 -23 0
-19 -25 -31 -34 -18 -29 -38 -20 0
-19 -25 -31 -34 -20 -26 -29 -23 0
-19 -25 -31 -35 -18 -26 -39 -24 0
-19 -25 -31 -35 -18 -30 -39 -20 0
-19 -25 -31 -35 -20 -26 -30 -24 0
-19 -25 -32 -33 -18 -27 -40 -22 0
-19 -25 -32 -33 -18 -28 -40 -21 0
-19 -25 -32 -33 -21 -27 -28 -22 0
-19 -25 -32 -34 -18 -27 -41 -23 0
-19 -25 -32 -34 -18 -29 -41 -21 0
-19 -25 -32 -34 -21 -27 -29 -23 0
-19 -25 -32 -35 -18 -27 -42 -24 0
-19 -25 -32 -35 -18 -30 -42 -21 0
-19 -25 -32 -35 -21 -27 -30 -24 0
-19 -25 -33 -34 -18 -28 -43 -23 0
-19 -25 -33 -34 -18 -29 -43 -22 0
-19 -25 -33 -34 -22 -28 -29 -23 0
-19 -25 -33 -35 -18 -28 -44 -24 0
-19 -25 -33 -35 -18 -30 -44 -22 0
-19 -25 -33 -35 -22 -28 -30 -24 0
-19 -25 -34 -35 -18 -29 -45 -24 0
-19 -25 -34 -35 -18 -30 -45 -23 0
-19 -25 -34 -35 -23 -29 -30 -24 0
-19 -31 -32 -33 -20 -36 -40 -22 0
-19 -31 -32 -33 -20 -37 -40 -21 0
-19 -31 -32 -33 -21 -36 -37 -22 0
-19 -31 -32 -34 -20 -36 -41 -23 0
-19 -31 -32 -34 -20 -38 -41 -21 0
-19 -31 -32 -34 -21 -36 -38 -23 0
-19 -31 -32 -35 -20 -36 -42 -24 0
-19 -31 -32 -35 -20 -39 -42 -21 0
-19 -31 -32 -35 -21 -36 -39 -24 0
-19 -31 -33 -34 -20 -37 -43 -23 0
-19 -31 -33 -34 -20 -38 -43 -22 0
-19 -31 -33 -34 -22 -37 -38 -23 0
-19 -31 -33 -35 -20 -37 -44 -24 0
-19 -31 -33 -35 -20 -39 -44 -22 0
-19 -31 -33 -35 -22 -37 -39 -24 0
-19 -31 -34 -35 -20 -38 -45 -24 0
-19 -31 -34 -35 -20 -39 -45 -23 0
-19 -31 -34 -35 -23 -38 -39 -24 0
-19 -32 -33 -34 -21 -40 -43 -23 0
-19 -32 -33 -34 -21 -41 -43 -22 0
-19 -32 -33 -34 -22 -40 -41 -23 0
-19 -32 -33 -35 -21 -40 -44 -24 0
-19 -32 -33 -35 -21 -42 -44 -22 0
-19 -32 -33 -35 -22 -40 -42 -24 0
-19 -32 -34 -35 -21 -41 -45 -24 0
-19 -32 -34 -35 -21 -42 -45 -23 0
-19 -32 -34 -35 -23 -41 -42 -24 0
-19 -33 -34 -35 -22 -43 -45 -24 0
-19 -33 -34 -35 -22 -44 -45 -23 0
-19 -33 -34 -35 -23 -43 -44 -24 0
-25 -31 -32 -33 -26 -36 -40 -28 0
-25 -31 -32 -33 -26 -37 -40 -27 0
-25 -31 -32 -33 -27 -36 -37 -28 0
-25 -31 -32 -34 -26 -36 -41 -29 0
-25 -31 -32 -34 -26 -38 -41 -27 0
-25 -31 -32 -34 -27 -36 -38 -29 0
-25 -31 -32 -35 -26 -36 -42 -30 0
-25 -31 -32 -35 -26 -39 -42 -27 0
-25 -31 -32 -35 -27 -36 -39 -30 0
-25 -31 -33 -34 -26 -37 -43 -29 0
-25 -31 -33 -34 -26 -38 -43 -28 0
-25 -31 -33 -34 -28 -37 -38 -29 0
-25 -31 -33 -35 -26 -37 -44 -30 0
-25 -31 -33 -35 -26 -39 -44 -28 0
-25 -31 -33 -35 -28 -37 -39 -30 0
-25 -31 -34 -35 -26 -38 -45 -30 0
-25 -31 -34 -35 -26 -39 -45 -29 0
-25 -31 -34 -35 -29 -38 -39 -30 0
-25 -32 -33 -34 -27 -40 -43 -29 0
-25 -32 -33 -34 -27 -41 -43 -28 0
-25 -32 -33 -34 -28 -40 -41 -29 0
-25 -32 -33 -35 -27 -40 -44 -30 0
-25 -32 -33 -35 -27 -42 -44 -28 0
-25 -32 -33 -35 -28 -40 -42 -30 0
-25 -32 -34 -35 -27 -41 -45 -30 0
-25 -32 -34 -35 -27 -42 -45 -29 0
-25 -32 -34 -35 -29 -41 -42 -30 0
-25 -33 -34 -35 -28 -43 -45 -30 0
-25 -33 -34 -35 -28 -44 -45 -29 0
-25 -33 -34 -35 -29 -43 -44 -30 0
-31 -32 -33 -34 -36 -40 -43 -38 0
-31 -32 -33 -34 -36 -41 -43 -37 0
-31 -32 -33 -34 -37 -40 -41 -38 0
-31 -32 -33 -35 -36 -40 -44 -39 0
-31 -32 -33 -35 -36 -42 -44 -37 0
-31 -32 -33 -35 -37 -40 -42 -39 0
-31 -32 -34 -35 -36 -41 -45 -39 0
-31 -32 -34 -35 -36 -42 -45 -38 0
-31 -32 -34 -35 -38 -41 -42 -39 0
-31 -33 -34 -35 -37 -43 -45 -39 0
-31 -33 -34 -35 -37 -44 -45 -38 0
-31 -33 -34 -35 -38 -43 -44 -39 0
-32 -33 -34 -35 -40 -43 -45 -42 0
-32 -33 -34 -35 -40 -44 -45 -41 0
-32 -33 -34 -35 -41 -43 -44 -42 0
-5 -13 -20 -26 -1 -10 -18 -3 0
-5 -13 -20 -26 -1 -11 -18 -2 0
-5 -13 -20 -26 -2 -10 -11 -3 0
-5 -13 -20 -31 -1 -10 -19 -4 0
-5 -13 -20 -31 -1 -12 -19 -2 0
-5 -13 -20 -31 -2 -10 -12 -4 0
-5 -13 -20 -36 -1 -10 -21 -6 0
-5 -13 -20 -36 -1 -14 -21 -2 0
-5 -13 -20 -36 -2 -10 -14 -6 0
-5 -13 -20 -37 -1 -10 -22 -7 0
-5 -13 -20 -37 -1 -15 -22 -2 0
-5 -13 -20 -37 -2 -10 -15 -7 0
-5 -13 -20 -38 -1 -10 -23 -8 0
-5 -13 -20 -38 -1 -16 -23 -2 0
-5 -13 -20 -38 -2 -10 -16 -8 0
-5 -13 -20 -39 -1 -10 -24 -9 0
-5 -13 -20 -39 -1 -17 -24 -2 0
-5 -13 -20 -39 -2 -10 -17 -9 0
-5 -13 -26 -31 -1 -11 -25 -4 0
-5 -13 -26 -31 -1 -12 -25 -3 0
-5 -13 -26 -31 -3 -11 -12 -4 0
-5 -13 -26 -36 -1 -11 -27 -6 0
-5 -13 -26 -36 -1 -14 -27 -3 0
-5 -13 -26 -36 -3 -11 -14 -6 0
-5 -13 -26 -37 -1 -11 -28 -7 0
-5 -13 -26 -37 -1 -15 -28 -3 0
-5 -13 -26 -37 -3 -11 -15 -7 0
-5 -13 -26 -38 -1 -11 -29 -8 0
-5 -13 -26 -38 -1 -16 -29 -3 0
-5 -13 -26 -38 -3 -11 -16 -8 0
-5 -13 -26 -39 -1 -11 -30 -9 0
-5 -13 -26 -39 -1 -17 -30 -3 0
-5 -13 -26 -39 -3 -11 -17 -9 0
-5 -13 -31 -36 -1 -12 -32 -6 0
-5 -13 -31 -36 -1 -14 -32 -4 0
-5 -13 -31 -36 -4 -12 -14 -6 0
-5 -13 -31 -37 -1 -12 -33 -7 0
-5 -13 -31 -37 -1 -15 -33 -4 0
-5 -13 -31 -37 -4 -12 -15 -7 0
-5 -13 -31 -38 -1 -12 -34 -8 0
-5 -13 -31 -38 -1 -16 -34 -4 0
-5 -13 -31 -38 -4 -12 -16 -8 0
-5 -13 -31 -39 -1 -12 -35 -9 0
-5 -13 -31 -39 -1 -17 -35 -4 0
-5 -13 -31 -39 -4 -12 -17 -9 0
-5 -13 -36 -37 -1 -14 -40 -7 0
-5 -13 -36 -37 -1 -15 -40 -6 0
-5 -13 -36 -37 -6 -14 -15 -7 0
-5 -13 -36 -38 -1 -14 -41 -8 0
-5 -13 -36 -38 -1 -16 -41 -6 0
-5 -13 -36 -38 -6 -14 -16 -8 0
-5 -13 -36 -39 -1 -14 -42 -9 0
-5 -13 -36 -39 -1 -17 -42 -6 0
-5 -13 -36 -39 -6 -14 -17 -9 0
-5 -13 -37 -38 -1 -15 -43 -8 0
-5 -13 -37 -38 -1 -16 -43 -7 0
-5 -13 -37 -38 -7 -15 -16 -8 0
-5 -13 -37 -39 -1 -15 -44 -9 0
-5 -13 -37 -39 -1 -17 -44 -7 0
-5 -13 -37 -39 -7 -15 -17 -9 0
-5 -13 -38 -39 -1 -16 -45 -9 0
-5 -13 -38 -39 -1 -17 -45 -8 0
-5 -13 -38 -39 -8 -16 -17 -9 0
-5 -20 -26 -31 -2 -18 -25 -4 0
-5 -20 -26 -31 -2 -19 -25 -3 0
-5 -20 -26 -31 -3 -18 -19 -4 0
-5 -20 -26 -36 -2 -18 -27 -6 0
-5 -20 -26 -36 -2 -21 -27 -3 0
-5 -20 -26 -36 -3 -18 -21 -6 0
-5 -20 -26 -37 -2 -18 -28 -7 0
-5 -20 -26 -37 -2 -22 -28 -3 0
-5 -20 -26 -37 -3 -18 -22 -7 0
-5 -20 -26 -38 -2 -18 -29 -8 0
-5 -20 -26 -38 -2 -23 -29 -3 0
-5 -20 -26 -38 -3 -18 -23 -8 0
-5 -20 -26 -39 -2 -18 -30 -9 0
-5 -20 -26 -39 -2 -24 -30 -3 0
-5 -20 -26 -39 -3 -18 -24 -9 0
-5 -20 -31 -36 -2 -19 -32 -6 0
-5 -20 -31 -36 -2 -21 -32 -4 0
-5 -20 -31 -36 -4 -19 -21 -6 0
-5 -20 -31 -37 -2 -19 -33 -7 0
-5 -20 -31 -37 -2 -22 -33 -4 0
-5 -20 -31 -37 -4 -19 -22 -7 0
-5 -20 -31 -38 -2 -19 -34 -8 0
-5 -20 -31 -38 -2 -23 -34 -4 0
-5 -20 -31 -38 -4 -19 -23 -8 0
-5 -20 -31 -39 -2 -19 -35 -9 0
-5 -20 -31 -39 -2 -24 -35 -4 0
-5 -20 -31 -39 -4 -19 -24 -9 0
-5 -20 -36 -37 -2 -21 -40 -7 0
-5 -20 -36 -37 -2 -22 -40 -6 0
-5 -20 -36 -37 -6 -21 -22 -7 0
-5 -20 -36 -38 -2 -21 -41 -8 0
-5 -20 -36 -38 -2 -23 -41 -6 0
-5 -20 -36 -38 -6 -21 -23 -8 0
-5 -20 -36 -39 -2 -21 -42 -9 0
-5 -20 -36 -39 -2 -24 -42 -6 0
-5 -20 -36 -39 -6 -21 -24 -9 0
-5 -20 -37 -38 -2 -22 -43 -8 0
-5 -20 -37 -38 -2 -23 -43 -7 0
-5 -20 -37 -38 -7 -22 -23 -8 0
-5 -20 -37 -39 -2 -22 -44 -9 0
-5 -20 -37 -39 -2 -24 -44 -7 0
-5 -20 -37 -39 -7 -22 -24 -9 0
-5 -20 -38 -39 -2 -23 -45 -9 0
-5 -20 -38 -39 -2 -24 -45 -8 0
-5 -20 -38 -39 -8 -23 -24 -9 0
-5 -26 -31 -36 -3 -25 -32 -6 0
-5 -26 -31 -36 -3 -27 -32 -4 0
-5 -26 -31 -36 -4 -25 -27 -6 0
-5 -26 -31 -37 -3 -25 -33 -7 0
-5 -26 -31 -37 -3 -28 -33 -4 0
-5 -26 -31 -37 -4 -25 -28 -7 0
-5 -26 -31 -38 -3 -25 -34 -8 0
-5 -26 -31 -38 -3 -29 -34 -4 0
-5 -26 -31 -38 -4 -25 -29 -8 0
-5 -26 -31 -39 -3 -25 -35 -9 0
-5 -26 -31 -39 -3 -30 -35 -4 0
-5 -26 -31 -39 -4 -25 -30 -9 0
-5 -26 -36 -37 -3 -27 -40 -7 0
-5 -26 -36 -37 -3 -28 -40 -6 0
-5 -26 -36 -37 -6 -27 -28 -7 0
-5 -26 -36 -38 -3 -27 -41 -8 0
-5 -26 -36 -38 -3 -29 -41 -6 0
-5 -26 -36 -38 -6 -27 -29 -8 0
-5 -26 -36 -39 -3 -27 -42 -9 0
-5 -26 -36 -39 -3 -30 -42 -6 0
-5 -26 -36 -39 -6 -27 -30 -9 0
-5 -26 -37 -38 -3 -28 -43 -8 0
-5 -26 -37 -38 -3 -29 -43 -7 0
-5 -26 -37 -38 -7 -28 -29 -8 0
-5 -26 -37 -39 -3 -28 -44 -9 0
-5 -26 -37 -39 -3 -30 -44 -7 0
-5 -26 -37 -39 -7 -28 -30 -9 0
-5 -26 -38 -39 -3 -29 -45 -9 0
-5 -26 -38 -39 -3 -30 -45 -8 0
-5 -26 -38 -39 -8 -29 -30 -9 0
-5 -31 -36 -37 -4 -32 -40 -7 0
-5 -31 -36 -37 -4 -33 -40 -6 0
-5 -31 -36 -37 -6 -32 -33 -7 0
-5 -31 -36 -38 -4 -32 -41 -8 0
-5 -31 -36 -38 -4 -34 -41 -6 0
-5 -31 -36 -38 -6 -32 -34 -8 0
-5 -31 -36 -39 -4 -32 -42 -9 0
-5 -31 -36 -39 -4 -35 -42 -6 0
-5 -31 -36 -39 -6 -32 -35 -9 0
-5 -31 -37 -38 -4 -33 -43 -8 0
-5 -31 -37 -38 -4 -34 -43 -7 0
-5 -31 -37 -38 -7 -33 -34 -8 0
-5 -31 -37 -39 -4 -33 -44 -9 0
-5 -31 -37 -39 -4 -35 -44 -7 0
-5 -31 -37 -39 -7 -33 -35 -9 0
-5 -31 -38 -39 -4 -34 -45 -9 0
-5 -31 -38 -39 -4 -35 -45 -8 0
-5 -31 -38 -39 -8 -34 -35 -9 0
-5 -36 -37 -38 -6 -40 -43 -8 0
-5 -36 -37 -38 -6 -41 -43 -7 0
-5 -36 -37 -38 -7 -40 -41 -8 0
-5 -36 -37 -39 -6 -40 -44 -9 0
-5 -36 -37 -39 -6 -42 -44 -7 0
-5 -36 -37 -39 -7 -40 -42 -9 0
-5 -36 -38 -39 -6 -41 -45 -9 0
-5 -36 -38 -39 -6 -42 -45 -8 0
-5 -36 -38 -39 -8 -41 -42 -9 0
-5 -37 -38 -39 -7 -43 -45 -9 0
-5 -37 -38 -39 -7 -44 -45 -8 0
-5 -37 -38 -39 -8 -43 -44 -9 0
-13 -20 -26 -31 -10 -18 -25 -12 0
-13 -20 -26 -31 -10 -19 -25 -11 0
-13 -20 -26 -31 -11 -18 -19 -12 0
-13 -20 -26 -36 -10 -18 -27 -14 0
-13 -20 -26 -36 -10 -21 -27 -11 0
-13 -20 -26 -36 -11 -18 -21 -14 0
-13 -20 -26 -37 -10 -18 -28 -15 0
-13 -20 -26 -37 -10 -22 -28 -11 0
-13 -20 -26 -37 -11 -18 -22 -15 0
-13 -20 -26 -38 -10 -18 -29 -16 0
-13 -20 -26 -38 -10 -23 -29 -11 0
-13 -20 -26 -38 -11 -18 -23 -16 0
-13 -20 -26 -39 -10 -18 -30 -17 0
-13 -20 -26 -39 -10 -24 -30 -11 0
-13 -20 -26 -39 -11 -18 -24 -17 0
-13 -20 -31 -36 -10 -19 -32 -14 0
-13 -20 -31 -36 -10 -21 -32 -12 0
-13 -20 -31 -36 -12 -19 -21 -14 0
-13 -20 -31 -37 -10 -19 -33 -15 0
-13 -20 -31 -37 -10 -22 -33 -12 0
-13 -20 -31 -37 -12 -19 -22 -15 0
-13 -20 -31 -38 -10 -19 -34 -16 0
-13 -20 -31 -38 -10 -23 -34 -12 0
-13 -20 -31 -38 -12 -19 -23 -16 0
-13 -20 -31 -39 -10 -19 -35 -17 0
-13 -20 -31 -39 -10 -24 -35 -12 0
-13 -20 -31 -39 -12 -19 -24 -17 0
-13 -20 -36 -37 -10 -21 -40 -15 0
-13 -20 -36 -37 -10 -22 -40 -14 0
-13 -20 -36 -37 -14 -21 -22 -15 0
-13 -20 -36 -38 -10 -21 -41 -16 0
-13 -20 -36 -38 -10 -23 -41 -14 0
-13 -20 -36 -38 -14 -21 -23 -16 0
-13 -20 -36 -39 -10 -21 -42 -17 0
-13 -20 -36 -39 -10 -24 -42 -14 0
-13 -20 -36 -39 -14 -21 -24 -17 0
-13 -20 -37 -38 -10 -22 -43 -16 0
-13 -20 -37 -38 -10 -23 -43 -15 0
-13 -20 -37 -38 -15 -22 -23 -16 0
-13 -20 -37 -39 -10 -22 -44 -17 0
-13 -20 -37 -39 -10 -24 -44 -15 0
-13 -20 -37 -39 -15 -22 -24 -17 0
-13 -20 -38 -39 -10 -23 -45 -17 0
-13 -20 -38 -39 -10 -24 -45 -16 0
-13 -20 -38 -39 -16 -23 -24 -17 0
-13 -26 -31 -36 -11 -25 -32 -14 0
-13 -26 -31 -36 -11 -27 -32 -12 0
-13 -26 -31 -36 -12 -25 -27 -14 0
-13 -26 -31 -37 -11 -25 -33 -15 0
-13 -26 -31 -37 -11 -28 -33 -12 0
-13 -26 -31 -37 -12 -25 -28 -15 0
-13 -26 -31 -38 -11 -25 -34 -16 0
-13 -26 -31 -38 -11 -29 -34 -12 0
-13 -26 -31 -38 -12 -25 -29 -16 0
-13 -26 -31 -39 -11 -25 -35 -17 0
-13 -26 -31 -39 -11 -30 -35 -12 0
-13 -26 -31 -39 -12 -25 -30 -17 0
-13 -26 -36 -37 -11 -27 -40 -15 0
-13 -26 -36 -37 -11 -28 -40 -14 0
-13 -26 -36 -37 -14 -27 -28 -15 0
-13 -26 -36 -38 -11 -27 -41 -16 0
-13 -26 -36 -38 -11 -29 -41 -14 0
-13 -26 -36 -38 -14 -27 -29 -16 0
-13 -26 -36 -39 -11 -27 -42 -17 0
-13 -26 -36 -39 -11 -30 -42 -14 0
-13 -26 -36 -39 -14 -27 -30 -17 0
-13 -26 -37 -38 -11 -28 -43 -16 0
-13 -26 -37 -38 -11 -29 -43 -15 0
-13 -26 -37 -38 -15 -28 -29 -16 0
-13 -26 -37 -39 -11 -28 -44 -17 0
-13 -26 -37 -39 -11 -30 -44 -15 0
-13 -26 -37 -39 -15 -28 -30 -17 0
-13 -26 -38 -39 -11 -29 -45 -17 0
-13 -26 -38 -39 -11 -30 -45 -16 0
-13 -26 -38 -39 -16 -29 -30 -17 0
-13 -31 -36 -37 -12 -32 -40 -15 0
-13 -31 -36 -37 -12 -33 -40 -14 0
-13 -31 -36 -37 -14 -32 -33 -15 0
-13 -31 -36 -38 -12 -32 -41 -16 0
-13 -31 -36 -38 -12 -34 -41 -14 0
-13 -31 -36 -38 -14 -32 -34 -16 0
-13 -31 -36 -39 -12 -32 -42 -17 0
-13 -31 -36 -39 -12 -35 -42 -14 0
-13 -31 -36 -39 -14 -32 -35 -17 0
-13 -31 -37 -38 -12 -33 -43 -16 0
-13 -31 -37 -38 -12 -34 -43 -15 0
-13 -31 -37 -38 -15 -33 -34 -16 0
-13 -31 -37 -39 -12 -33 -44 -17 0
-13 -31 -37 -39 -12 -35 -44 -15 0
-13 -31 -37 -39 -15 -33 -35 -17 0
-13 -31 -38 -39 -12 -34 -45 -17 0
-13 -31 -38 -39 -12 -35 -45 -16 0
-13 -31 -38 -39 -16 -34 -35 -17 0
-13 -36 -37 -38 -14 -40 -43 -16 0
-13 -36 -37 -38 -14 -41 -43 -15 0
-13 -36 -37 -38 -15 -40 -41 -16 0
-13 -36 -37 -39 -14 -40 -44 -17 0
-13 -36 -37 -39 -14 -42 -44 -15 0
-13 -36 -37 -39 -15 -40 -42 -17 0
-13 -36 -38 -39 -14 -41 -45 -17 0
-13 -36 -38 -39 -14 -42 -45 -16 0
-13 -36 -38 -39 -16 -41 -42 -17 0
-13 -37 -38 -39 -15 -43 -45 -17 0
-13 -37 -38 -39 -15 -44 -45 -16 0
-13 -37 -38 -39 -16 -43 -44 -17 0
-20 -26 -31 -36 -18 -25 -32 -21 0
-20 -26 -31 -36 -18 -27 -32 -19 0
-20 -26 -31 -36 -19 -25 -27 -21 0
-20 -26 -31 -37 -18 -25 -33 -22 0
-20 -26 -31 -37 -18 -28 -33 -19 0
-20 -26 -31 -37 -19 -25 -28 -22 0
-20 -26 -31 -38 -18 -25 -34 -23 0
-20 -26 -31 -38 -18 -29 -34 -19 0
-20 -26 -31 -38 -19 -25 -29 -23 0
-20 -26 -31 -39 -18 -25 -35 -24 0
-20 -26 -31 -39 -18 -30 -35 -19 0
-20 -26 -31 -39 -19 -25 -30 -24 0
-20 -26 -36 -37 -18 -27 -40 -22 0
-20 -26 -36 -37 -18 -28 -40 -21 0
-20 -26 -36 -37 -21 -27 -28 -22 0
-20 -26 -36 -38 -18 -27 -41 -23 0
-20 -26 -36 -38 -18 -29 -41 -21 0
-20 -26 -36 -38 -21 -27 -29 -23 0
-20 -26 -36 -39 -18 -27 -42 -24 0
-20 -26 -36 -39 -18 -30 -42 -21 0
-20 -26 -36 -39 -21 -27 -30 -24 0
-20 -26 -37 -38 -18 -28 -43 -23 0
-20 -26 -37 -38 -18 -29 -43 -22 0
-20 -26 -37 -38 -22 -28 -29 -23 0
-20 -26 -37 -39 -18 -28 -44 -24 0
-20 -26 -37 -39 -18 -30 -44 -22 0
-20 -26 -37 -39 -22 -28 -30 -24 0
-20 -26 -38 -39 -18 -29 -45 -24 0
-20 -26 -38 -39 -18 -30 -45 -23 0
-20 -26 -38 -39 -23 -29 -30 -24 0
-20 -31 -36 -37 -19 -32 -40 -22 0
-20 -31 -36 -37 -19 -33 -40 -21 0
-20 -31 -36 -37 -21 -32 -33 -22 0
-20 -31 -36 -38 -19 -32 -41 -23 0
-20 -31 -36 -38 -19 -34 -41 -21 0
-20 -31 -36 -38 -21 -32 -34 -23 0
-20 -31 -36 -39 -19 -32 -42 -24 0
-20 -31 -36 -39 -19 -35 -42 -21 0
-20 -31 -36 -39 -21 -32 -35 -24 0
-20 -31 -37 -38 -19 -33 -43 -23 0
-20 -31 -37 -38 -19 -34 -43 -22 0
-20 -31 -37 -38 -22 -33 -34 -23 0
-20 -31 -37 -39 -19 -33 -44 -24 0
-20 -31 -37 -39 -19 -35 -44 -22 0
-20 -31 -37 -39 -22 -33 -35 -24 0
-20 -31 -38 -39 -19 -34 -45 -24 0
-20 -31 -38 -39 -19 -35 -45 -23 0
-20 -31 -38 -39 -23 -34 -35 -24 0
-20 -36 -37 -38 -21 -40 -43 -23 0
-20 -36 -37 -38 -21 -41 -43 -22 0
-20 -36 -37 -38 -22 -40 -41 -23 0
-20 -36 -37 -39 -21 -40 -44 -24 0
-20 -36 -37 -39 -21 -42 -44 -22 0
-20 -36 -37 -39 -22 -40 -42 -24 0
-20 -36 -38 -39 -21 -41 -45 -24 0
-20 -36 -38 -39 -21 -42 -45 -23 0
-20 -36 -38 -39 -23 -41 -42 -24 0
-20 -37 -38 -39 -22 -43 -45 -24 0
-20 -37 -38 -39 -22 -44 -45 -23 0
-20 -37 -38 -39 -23 -43 -44 -24 0
-26 -31 -36 -37 -25 -32 -40 -28 0
-26 -31 -36 -37 -25 -33 -40 -27 0
-26 -31 -36 -37 -27 -32 -33 -28 0
-26 -31 -36 -38 -25 -32 -41 -29 0
-26 -31 -36 -38 -25 -34 -41 -27 0
-26 -31 -36 -38 -27 -32 -34 -29 0
-26 -31 -36 -39 -25 -32 -42 -30 0
-26 -31 -36 -39 -25 -35 -42 -27 0
-26 -31 -36 -39 -27 -32 -35 -30 0
-26 -31 -37 -38 -25 -33 -43 -29 0
-26 -31 -37 -38 -25 -34 -43 -28 0
-26 -31 -37 -38 -28 -33 -34 -29 0
-26 -31 -37 -39 -25 -33 -44 -30 0
-26 -31 -37 -39 -25 -35 -44 -28 0
-26 -31 -37 -39 -28 -33 -35 -30 0
-26 -31 -38 -39 -25 -34 -45 -30 0
-26 -31 -38 -39 -25 -35 -45 -29 0
-26 -31 -38 -39 -29 -34 -35 -30 0
-26 -36 -37 -38 -27 -40 -43 -29 0
-26 -36 -37 -38 -27 -41 -43 -28 0
-26 -36 -37 -38 -28 -40 -41 -29 0
-26 -36 -37 -39 -27 -40 -44 -30 0
-26 -36 -37 -39 -27 -42 -44 -28 0
-26 -36 -37 -39 -28 -40 -42 -30 0
-26 -36 -38 -39 -27 -41 -45 -30 0
-26 -36 -38 -39 -27 -42 -45 -29 0
-26 -36 -38 -39 -29 -41 -42 -30 0
-26 -37 -38 -39 -28 -43 -45 -30 0
-26 -37 -38 -39 -28 -44 -45 -29 0
-26 -37 -38 -39 -29 -43 -44 -30 0
-31 -36 -37 -38 -32 -40 -43 -34 0
-31 -36 -37 -38 -32 -41 -43 -33 0
-31 -36 -37 -38 -33 -40 -41 -34 0
-31 -36 -37 -39 -32 -40 -44 -35 0
-31 -36 -37 -39 -32 -42 -44 -33 0
-31 -36 -37 -39 -33 -40 -42 -35 0
-31 -36 -38 -39 -32 -41 -45 -35 0
-31 -36 -38 -39 -32 -42 -45 -34 0
-31 -36 -38 -39 -34 -41 -42 -35 0
-31 -37 -38 -39 -33 -43 -45 -35 0
-31 -37 -38 -39 -33 -44 -45 -34 0
-31 -37 -38 -39 -34 -43 -44 -35 0
-36 -37 -38 -39 -40 -43 -45 -42 0
-36 -37 -38 -39 -40 -44 -45 -41 0
-36 -37 -38 -39 -41 -43 -44 -42 0
-6 -14 -21 -27 -1 -10 -18 -3 0
-6 -14 -21 -27 -1 -11 -18 -2 0
-6 -14 -21 -27 -2 -10 -11 -3 0
-6 -14 -21 -32 -1 -10 -19 -4 0
-6 -14 -21 -32 -1 -12 -19 -2 0
-6 -14 -21 -32 -2 -10 -12 -4 0
-6 -14 -21 -36 -1 -10 -20 -5 0
-6 -14 -21 -36 -1 -13 -20 -2 0
-6 -14 -21 -36 -2 -10 -13 -5 0
-6 -14 -21 -40 -1 -10 -22 -7 0
-6 -14 -21 -40 -1 -15 -22 -2 0
-6 -14 -21 -40 -2 -10 -15 -7 0
-6 -14 -21 -41 -1 -10 -23 -8 0
-6 -14 -21 -41 -1 -16 -23 -2 0
-6 -14 -21 -41 -2 -10 -16 -8 0
-6 -14 -21 -42 -1 -10 -24 -9 0
-6 -14 -21 -42 -1 -17 -24 -2 0
-6 -14 -21 -42 -2 -10 -17 -9 0
-6 -14 -27 -32 -1 -11 -25 -4 0
-6 -14 -27 -32 -1 -12 -25 -3 0
-6 -14 -27 -32 -3 -11 -12 -4 0
-6 -14 -27 -36 -1 -11 -26 -5 0
-6 -14 -27 -36 -1 -13 -26 -3 0
-6 -14 -27 -36 -3 -11 -13 -5 0
-6 -14 -27 -40 -1 -11 -28 -7 0
-6 -14 -27 -40 -1 -15 -28 -3 0
-6 -14 -27 -40 -3 -11 -15 -7 0
-6 -14 -27 -41 -1 -11 -29 -8 0
-6 -14 -27 -41 -1 -16 -29 -3 0
-6 -14 -27 -41 -3 -11 -16 -8 0
-6 -14 -27 -42 -1 -11 -30 -9 0
-6 -14 -27 -42 -1 -17 -30 -3 0
-6 -14 -27 -42 -3 -11 -17 -9 0
-6 -14 -32 -36 -1 -12 -31 -5 0
-6 -14 -32 -36 -1 -13 -31 -4 0
-6 -14 -32 -36 -4 -12 -13 -5 0
-6 -14 -32 -40 -1 -12 -33 -7 0
-6 -14 -32 -40 -1 -15 -33 -4 0
-6 -14 -32 -40 -4 -12 -15 -7 0
-6 -14 -32 -41 -1 -12 -34 -8 0
-6 -14 -32 -41 -1 -16 -34 -4 0
-6 -14 -32 -41 -4 -12 -16 -8 0
-6 -14 -32 -42 -1 -12 -35 -9 0
-6 -14 -32 -42 -1 -17 -35 -4 0
-6 -14 -32 -42 -4 -12 -17 -9 0
-6 -14 -36 -40 -1 -13 -37 -7 0
-6 -14 -36 -40 -1 -15 -37 -5 0
-6 -14 -36 -40 -5 -13 -15 -7 0
-6 -14 -36 -41 -1 -13 -38 -8 0
-6 -14 -36 -41 -1 -16 -38 -5 0
-6 -14 -36 -41 -5 -13 -16 -8 0
-6 -14 -36 -42 -1 -13 -39 -9 0
-6 -14 -36 -42 -1 -17 -39 -5 0
-6 -14 -36 -42 -5 -13 -17 -9 0
-6 -14 -40 -41 -1 -15 -43 -8 0
-6 -14 -40 -41 -1 -16 -43 -7 0
-6 -14 -40 -41 -7 -15 -16 -8 0
-6 -14 -40 -42 -1 -15 -44 -9 0
-6 -14 -40 -42 -1 -17 -44 -7 0
-6 -14 -40 -42 -7 -15 -17 -9 0
-6 -14 -41 -42 -1 -16 -45 -9 0
-6 -14 -41 -42 -1 -17 -45 -8 0
-6 -14 -41 -42 -8 -16 -17 -9 0
-6 -21 -27 -32 -2 -18 -25 -4 0
-6 -21 -27 -32 -2 -19 -25 -3 0
-6 -21 -27 -32 -3 -18 -19 -4 0
-6 -21 -27 -36 -2 -18 -26 -5 0
-6 -21 -27 -36 -2 -20 -26 -3 0
-6 -21 -27 -36 -3 -18 -20 -5 0
-6 -21 -27 -40 -2 -18 -28 -7 0
-6 -21 -27 -40 -2 -22 -28 -3 0
-6 -21 -27 -40 -3 -18 -22 -7 0
-6 -21 -27 -41 -2 -18 -29 -8 0
-6 -21 -27 -41 -2 -23 -29 -3 0
-6 -21 -27 -41 -3 -18 -23 -8 0
-6 -21 -27 -42 -2 -18 -30 -9 0
-6 -21 -27 -42 -2 -24 -30 -3 0
-6 -21 -27 -42 -3 -18 -24 -9 0
-6 -21 -32 -36 -2 -19 -31 -5 0
-6 -21 -32 -36 -2 -20 -31 -4 0
-6 -21 -32 -36 -4 -19 -20 -5 0
-6 -21 -32 -40 -2 -19 -33 -7 0
-6 -21 -32 -40 -2 -22 -33 -4 0
-6 -21 -32 -40 -4 -19 -22 -7 0
-6 -21 -32 -41 -2 -19 -34 -8 0
-6 -21 -32 -41 -2 -23 -34 -4 0
-6 -21 -32 -41 -4 -19 -23 -8 0
-6 -21 -32 -42 -2 -19 -35 -9 0
-6 -21 -32 -42 -2 -24 -35 -4 0
-6 -21 -32 -42 -4 -19 -24 -9 0
-6 -21 -36 -40 -2 -20 -37 -7 0
-6 -21 -36 -40 -2 -22 -37 -5 0
-6 -21 -36 -40 -5 -20 -22 -7 0
-6 -21 -36 -41 -2 -20 -38 -8 0
-6 -21 -36 -41 -2 -23 -38 -5 0
-6 -21 -36 -41 -5 -20 -23 -8 0
-6 -21 -36 -42 -2 -20 -39 -9 0
-6 -21 -36 -42 -2 -24 -39 -5 0
-6 -21 -36 -42 -5 -20 -24 -9 0
-6 -21 -40 -41 -2 -22 -43 -8 0
-6 -21 -40 -41 -2 -23 -43 -7 0
-6 -21 -40 -41 -7 -22 -23 -8 0
-6 -21 -40 -42 -2 -22 -44 -9 0
-6 -21 -40 -42 -2 -24 -44 -7 0
-6 -21 -40 -42 -7 -22 -24 -9 0
-6 -21 -41 -42 -2 -23 -45 -9 0
-6 -21 -41 -42 -2 -24 -45 -8 0
-6 -21 -41 -42 -8 -23 -24 -9 0
-6 -27 -32 -36 -3 -25 -31 -5 0
-6 -27 -32 -36 -3 -26 -31 -4 0
-6 -27 -32 -36 -4 -25 -26 -5 0
-6 -27 -32 -40 -3 -25 -33 -7 0
-6 -27 -32 -40 -3 -28 -33 -4 0
-6 -27 -32 -40 -4 -25 -28 -7 0
-6 -27 -32 -41 -3 -25 -34 -8 0
-6 -27 -32 -41 -3 -29 -34 -4 0
-6 -27 -32 -41 -4 -25 -29 -8 0
-6 -27 -32 -42 -3 -25 -35 -9 0
-6 -27 -32 -42 -3 -30 -35 -4 0
-6 -27 -32 -42 -4 -25 -30 -9 0
-6 -27 -36 -40 -3 -26 -37 -7 0
-6 -27 -36 -40 -3 -28 -37 -5 0
-6 -27 -36 -40 -5 -26 -28 -7 0
-6 -27 -36 -41 -3 -26 -38 -8 0
-6 -27 -36 -41 -3 -29 -38 -5 0
-6 -27 -36 -41 -5 -26 -29 -8 0
-6 -27 -36 -42 -3 -26 -39 -9 0
-6 -27 -36 -42 -3 -30 -39 -5 0
-6 -27 -36 -42 -5 -26 -30 -9 0
-6 -27 -40 -41 -3 -28 -43 -8 0
-6 -27 -40 -41 -3 -29 -43 -7 0
-6 -27 -40 -41 -7 -28 -29 -8 0
-6 -27 -40 -42 -3 -28 -44 -9 0
-6 -27 -40 -42 -3 -30 -44 -7 0
-6 -27 -40 -42 -7 -28 -30 -9 0
-6 -27 -41 -42 -3 -29 -45 -9 0
-6 -27 -41 -42 -3 -30 -45 -8 0
-6 -27 -41 -42 -8 -29 -30 -9 0
-6 -32 -36 -40 -4 -31 -37 -7 0
-6 -32 -36 -40 -4 -33 -37 -5 0
-6 -32 -36 -40 -5 -31 -33 -7 0
-6 -32 -36 -41 -4 -31 -38 -8 0
-6 -32 -36 -41 -4 -34 -38 -5 0
-6 -32 -36 -41 -5 -31 -34 -8 0
-6 -32 -36 -42 -4 -31 -39 -9 0
-6 -32 -36 -42 -4 -35 -39 -5 0
-6 -32 -36 -42 -5 -31 -35 -9 0
-6 -32 -40 -41 -4 -33 -43 -8 0
-6 -32 -40 -41 -4 -34 -43 -7 0
-6 -32 -40 -41 -7 -33 -34 -8 0
-6 -32 -40 -42 -4 -33 -44 -9 0
-6 -32 -40 -42 -4 -35 -44 -7 0
-6 -32 -40 -42 -7 -33 -35 -9 0
-6 -32 -41 -42 -4 -34 -45 -9 0
-6 -32 -41 -42 -4 -35 -45 -8 0
-6 -32 -41 -42 -8 -34 -35 -9 0
-6 -36 -40 -41 -5 -37 -43 -8 0
-6 -36 -40 -41 -5 -38 -43 -7 0
-6 -36 -40 -41 -7 -37 -38 -8 0
-6 -36 -40 -42 -5 -37 -44 -9 0
-6 -36 -40 -42 -5 -39 -44 -7 0
-6 -36 -40 -42 -7 -37 -39 -9 0
-6 -36 -41 -42 -5 -38 -45 -9 0
-6 -36 -41 -42 -5 -39 -45 -8 0
-6 -36 -41 -42 -8 -38 -39 -9 0
-6 -40 -41 -42 -7 -43 -45 -9 0
-6 -40 -41 -42 -7 -44 -45 -8 0
-6 -40 -41 -42 -8 -43 -44 -9 0
-14 -21 -27 -32 -10 -18 -25 -12 0
-14 -21 -27 -32 -10 -19 -25 -11 0
-14 -21 -27 -32 -11 -18 -19 -12 0
-14 -21 -27 -36 -10 -18 -26 -13 0
-14 -21 -27 -36 -10 -20 -26 -11 0
-14 -21 -27 -36 -11 -18 -20 -13 0
-14 -21 -27 -40 -10 -18 -28 -15 0
-14 -21 -27 -40 -10 -22 -28 -11 0
-14 -21 -27 -40 -11 -18 -22 -15 0
-14 -21 -27 -41 -10 -18 -29 -16 0
-14 -21 -27 -41 -10 -23 -29 -11 0
-14 -21 -27 -41 -11 -18 -23 -16 0
-14 -21 -27 -42 -10 -18 -30 -17 0
-14 -21 -27 -42 -10 -24 -30 -11 0
-14 -21 -27 -42 -11 -18 -24 -17 0
-14 -21 -32 -36 -10 -19 -31 -13 0
-14 -21 -32 -36 -10 -20 -31 -12 0
-14 -21 -32 -36 -12 -19 -20 -13 0
-14 -21 -32 -40 -10 -19 -33 -15 0
-14 -21 -32 -40 -10 -22 -33 -12 0
-14 -21 -32 -40 -12 -19 -22 -15 0
-14 -21 -32 -41 -10 -19 -34 -16 0
-14 -21 -32 -41 -10 -23 -34 -12 0
-14 -21 -32 -41 -12 -19 -23 -16 0
-14 -21 -32 -42 -10 -19 -35 -17 0
-14 -21 -32 -42 -10 -24 -35 -12 0
-14 -21 -32 -42 -12 -19 -24 -17 0
-14 -21 -36 -40 -10 -20 -37 -15 0
-14 -21 -36 -40 -10 -22 -37 -13 0
-14 -21 -36 -40 -13 -20 -22 -15 0
-14 -21 -36 -41 -10 -20 -38 -16 0
-14 -21 -36 -41 -10 -23 -38 -13 0
-14 -21 -36 -41 -13 -20 -23 -16 0
-14 -21 -36 -42 -10 -20 -39 -17 0
-14 -21 -36 -42 -10 -24 -39 -13 0
-14 -21 -36 -42 -13 -20 -24 -17 0
-14 -21 -40 -41 -10 -22 -43 -16 0
-14 -21 -40 -41 -10 -23 -43 -15 0
-14 -21 -40 -41 -15 -22 -23 -16 0
-14 -21 -40 -42 -10 -22 -44 -17 0
-14 -21 -40 -42 -10 -24 -44 -15 0
-14 -21 -40 -42 -15 -22 -24 -17 0
-14 -21 -41 -42 -10 -23 -45 -17 0
-14 -21 -41 -42 -10 -24 -45 -16 0
-14 -21 -41 -42 -16 -23 -24 -17 0
-14 -27 -32 -36 -11 -25 -31 -13 0
-14 -27 -32 -36 -11 -26 -31 -12 0
-14 -27 -32 -36 -12 -25 -26 -13 0
-14 -27 -32 -40 -11 -25 -33 -15 0
-14 -27 -32 -40 -11 -28 -33 -12 0
-14 -27 -32 -40 -12 -25 -28 -15 0
-14 -27 -32 -41 -11 -25 -34 -16 0
-14 -27 -32 -41 -11 -29 -34 -12 0
-14 -27 -32 -41 -12 -25 -29 -16 0
-14 -27 -32 -42 -11 -25 -35 -17 0
-14 -27 -32 -42 -11 -30 -35 -12 0
-14 -27 -32 -42 -12 -25 -30 -17 0
-14 -27 -36 -40 -11 -26 -37 -15 0
-14 -27 -36 -40 -11 -28 -37 -13 0
-14 -27 -36 -40 -13 -26 -28 -15 0
-14 -27 -36 -41 -11 -26 -38 -16 0
-14 -27 -36 -41 -11 -29 -38 -13 0
-14 -27 -36 -41 -13 -26 -29 -16 0
-14 -27 -36 -42 -11 -26 -39 -17 0
-14 -27 -36 -42 -11 -30 -39 -13 0
-14 -27 -36 -42 -13 -26 -30 -17 0
-14 -27 -40 -41 -11 -28 -43 -16 0
-14 -27 -40 -41 -11 -29 -43 -15 0
-14 -27 -40 -41 -15 -28 -29 -16 0
-14 -27 -40 -42 -11 -28 -44 -17 0
-14 -27 -40 -42 -11 -30 -44 -15 0
-14 -27 -40 -42 -15 -28 -30 -17 0
-14 -27 -41 -42 -11 -29 -45 -17 0
-14 -27 -41 -42 -11 -30 -45 -16 0
-14 -27 -41 -42 -16 -29 -30 -17 0
-14 -32 -36 -40 -12 -31 -37 -15 0
-14 -32 -36 -40 -12 -33 -37 -13 0
-14 -32 -36 -40 -13 -31 -33 -15 0
-14 -32 -36 -41 -12 -31 -38 -16 0
-14 -32 -36 -41 -12 -34 -38 -13 0
-14 -32 -36 -41 -13 -31 -34 -16 0
-14 -32 -36 -42 -12 -31 -39 -17 0
-14 -32 -36 -42 -12 -35 -39 -13 0
-14 -32 -36 -42 -13 -31 -35 -17 0
-14 -32 -40 -41 -12 -33 -43 -16 0
-14 -32 -40 -41 -12 -34 -43 -15 0
-14 -32 -40 -41 -15 -33 -34 -16 0
-14 -32 -40 -42 -12 -33 -44 -17 0
-14 -32 -40 -42 -12 -35 -44 -15 0
-14 -32 -40 -42 -15 -33 -35 -17 0
-14 -32 -41 -42 -12 -34 -45 -17 0
-14 -32 -41 -42 -12 -35 -45 -16 0
-14 -32 -41 -42 -16 -34 -35 -17 0
-14 -36 -40 -41 -13 -37 -43 -16 0
-14 -36 -40 -41 -13 -38 -43 -15 0
-14 -36 -40 -41 -15 -37 -38 -16 0
-14 -36 -40 -42 -13 -37 -44 -17 0
-14 -36 -40 -42 -13 -39 -44 -15 0
-14 -36 -40 -42 -15 -37 -39 -17 0
-14 -36 -41 -42 -13 -38 -45 -17 0
-14 -36 -41 -42 -13 -39 -45 -16 0
-14 -36 -41 -42 -16 -38 -39 -17 0
-14 -40 -41 -42 -15 -43 -45 -17 0
-14 -40 -41 -42 -15 -44 -45 -16 0
-14 -40 -41 -42 -16 -43 -44 -17 0
-21 -27 -32 -36 -18 -25 -31 -20 0
-21 -27 -32 -36 -18 -26 -31 -19 0
-21 -27 -32 -36 -19 -25 -26 -20 0
-21 -27 -32 -40 -18 -25 -33 -22 0
-21 -27 -32 -40 -18 -28 -33 -19 0
-21 -27 -32 -40 -19 -25 -28 -22 0
-21 -27 -32 -41 -18 -25 -34 -23 0
-21 -27 -32 -41 -18 -29 -34 -19 0
-21 -27 -32 -41 -19 -25 -29 -23 0
-21 -27 -32 -42 -18 -25 -35 -24 0
-21 -27 -32 -42 -18 -30 -35 -19 0
-21 -27 -32 -42 -19 -25 -30 -24 0
-21 -27 -36 -40 -18 -26 -37 -22 0
-21 -27 -36 -40 -18 -28 -37 -20 0
-21 -27 -36 -40 -20 -26 -28 -22 0
-21 -27 -36 -41 -18 -26 -38 -23 0
-21 -27 -36 -41 -18 -29 -38 -20 0
-21 -27 -36 -41 -20 -26 -29 -23 0
-21 -27 -36 -42 -18 -26 -39 -24 0
-21 -27 -36 -42 -18 -30 -39 -20 0
-21 -27 -36 -42 -20 -26 -30 -24 0
-21 -27 -40 -41 -18 -28 -43 -23 0
-21 -27 -40 -41 -18 -29 -43 -22 0
-21 -27 -40 -41 -22 -28 -29 -23 0
-21 -27 -40 -42 -18 -28 -44 -24 0
-21 -27 -40 -42 -18 -30 -44 -22 0
-21 -27 -40 -42 -22 -28 -30 -24 0
-21 -27 -41 -42 -18 -29 -45 -24 0
-21 -27 -41 -42 -18 -30 -45 -23 0
-21 -27 -41 -42 -23 -29 -30 -24 0
-21 -32 -36 -40 -19 -31 -37 -22 0
-21 -32 -36 -40 -19 -33 -37 -20 0
-21 -32 -36 -40 -20 -31 -33 -22 0
-21 -32 -36 -41 -19 -31 -38 -23 0
-21 -32 -36 -41 -19 -34 -38 -20 0
-21 -32 -36 -41 -20 -31 -34 -23 0
-21 -32 -36 -42 -19 -31 -39 -24 0
-21 -32 -36 -42 -19 -35 -39 -20 0
-21 -32 -36 -42 -20 -31 -35 -24 0
-21 -32 -40 -41 -19 -33 -43 -23 0
-21 -32 -40 -41 -19 -34 -43 -22 0
-21 -32 -40 -41 -22 -33 -34 -23 0
-21 -32 -40 -42 -19 -33 -44 -24 0
-21 -32 -40 -42 -19 -35 -44 -22 0
-21 -32 -40 -42 -22 -33 -35 -24 0
-21 -32 -41 -42 -19 -34 -45 -24 0
-21 -32 -41 -42 -19 -35 -45 -23 0
-21 -32 -41 -42 -23 -34 -35 -24 0
-21 -36 -40 -41 -20 -37 -43 -23 0
-21 -36 -40 -41 -20 -38 -43 -22 0
-21 -36 -40 -41 -22 -37 -38 -23 0
-21 -36 -40 -42 -20 -37 -44 -24 0
-21 -36 -40 -42 -20 -39 -44 -22 0
-21 -36 -40 -42 -22 -37 -39 -24 0
-21 -36 -41 -42 -20 -38 -45 -24 0
-21 -36 -41 -42 -20 -39 -45 -23 0
-21 -36 -41 -42 -23 -38 -39 -24 0
-21 -40 -41 -42 -22 -43 -45 -24 0
-21 -40 -41 -42 -22 -44 -45 -23 0
-21 -40 -41 -42 -23 -43 -44 -24 0
-27 -32 -36 -40 -25 -31 -37 -28 0
-27 -32 -36 -40 -25 -33 -37 -26 0
-27 -32 -36 -40 -26 -31 -33 -28 0
-27 -32 -36 -41 -25 -31 -38 -29 0
-27 -32 -36 -41 -25 -34 -38 -26 0
-27 -32 -36 -41 -26 -31 -34 -29 0
-27 -32 -36 -42 -25 -31 -39 -30 0
-27 -32 -36 -42 -25 -35 -39 -26 0
-27 -32 -36 -42 -26 -31 -35 -30 0
-27 -32 -40 -41 -25 -33 -43 -29 0
-27 -32 -40 -41 -25 -34 -43 -28 0
-27 -32 -40 -41 -28 -33 -34 -29 0
-27 -32 -40 -42 -25 -33 -44 -30 0
-27 -32 -40 -42 -25 -35 -44 -28 0
-27 -32 -40 -42 -28 -33 -35 -30 0
-27 -32 -41 -42 -25 -34 -45 -30 0
-27 -32 -41 -42 -25 -35 -45 -29 0
-27 -32 -41 -42 -29 -34 -35 -30 0
-27 -36 -40 -41 -26 -37 -43 -29 0
-27 -36 -40 -41 -26 -38 -43 -28 0
-27 -36 -40 -41 -28 -37 -38 -29 0
-27 -36 -40 -42 -26 -37 -44 -30 0
-27 -36 -40 -42 -26 -39 -44 -28 0
-27 -36 -40 -42 -28 -37 -39 -30 0
-27 -36 -41 -42 -26 -38 -45 -30 0
-27 -36 -41 -42 -26 -39 -45 -29 0
-27 -36 -41 -42 -29 -38 -39 -30 0
-27 -40 -41 -42 -28 -43 -45 -30 0
-27 -40 -41 -42 -28 -44 -45 -29 0
-27 -40 -41 -42 -29 -43 -44 -30 0
-32 -36 -40 -41 -31 -37 -43 -34 0
-32 -36 -40 -41 -31 -38 -43 -33 0
-32 -36 -40 -41 -33 -37 -38 -34 0
-32 -36 -40 -42 -31 -37 -44 -35 0
-32 -36 -40 -42 -31 -39 -44 -33 0
-32 -36 -40 -42 -33 -37 -39 -35 0
-32 -36 -41 -42 -31 -38 -45 -35 0
-32 -36 -41 -42 -31 -39 -45 -34 0
-32 -36 -41 -42 -34 -38 -39 -35 0
-32 -40 -41 -42 -33 -43 -45 -35 0
-32 -40 -41 -42 -33 -44 -45 -34 0
-32 -40 -41 -42 -34 -43 -44 -35 0
-36 -40 -41 -42 -37 -43 -45 -39 0
-36 -40 -41 -42 -37 -44 -45 -38 0
-36 -40 -41 -42 -38 -43 -44 -39 0
-7 -15 -22 -28 -1 -10 -18 -3 0
-7 -15 -22 -28 -1 -11 -18 -2 0
-7 -15 -22 -28 -2 -10 -11 -3 0
-7 -15 -22 -33 -1 -10 -19 -4 0
-7 -15 -22 -33 -1 -12 -19 -2 0
-7 -15 -22 -33 -2 -10 -12 -4 0
-7 -15 -22 -37 -1 -10 -20 -5 0
-7 -15 -22 -37 -1 -13 -20 -2 0
-7 -15 -22 -37 -2 -10 -13 -5 0
-7 -15 -22 -40 -1 -10 -21 -6 0
-7 -15 -22 -40 -1 -14 -21 -2 0
-7 -15 -22 -40 -2 -10 -14 -6 0
-7 -15 -22 -43 -1 -10 -23 -8 0
-7 -15 -22 -43 -1 -16 -23 -2 0
-7 -15 -22 -43 -2 -10 -16 -8 0
-7 -15 -22 -44 -1 -10 -24 -9 0
-7 -15 -22 -44 -1 -17 -24 -2 0
-7 -15 -22 -44 -2 -10 -17 -9 0
-7 -15 -28 -33 -1 -11 -25 -4 0
-7 -15 -28 -33 -1 -12 -25 -3 0
-7 -15 -28 -33 -3 -11 -12 -4 0
-7 -15 -28 -37 -1 -11 -26 -5 0
-7 -15 -28 -37 -1 -13 -26 -3 0
-7 -15 -28 -37 -3 -11 -13 -5 0
-7 -15 -28 -40 -1 -11 -27 -6 0
-7 -15 -28 -40 -1 -14 -27 -3 0
-7 -15 -28 -40 -3 -11 -14 -6 0
-7 -15 -28 -43 -1 -11 -29 -8 0
-7 -15 -28 -43 -1 -16 -29 -3 0
-7 -15 -28 -43 -3 -11 -16 -8 0
-7 -15 -28 -44 -1 -11 -30 -9 0
-7 -15 -28 -44 -1 -17 -30 -3 0
-7 -15 -28 -44 -3 -11 -17 -9 0
-7 -15 -33 -37 -1 -12 -31 -5 0
-7 -15 -33 -37 -1 -13 -31 -4 0
-7 -15 -33 -37 -4 -12 -13 -5 0
-7 -15 -33 -40 -1 -12 -32 -6 0
-7 -15 -33 -40 -1 -14 -32 -4 0
-7 -15 -33 -40 -4 -12 -14 -6 0
-7 -15 -33 -43 -1 -12 -34 -8 0
-7 -15 -33 -43 -1 -16 -34 -4 0
-7 -15 -33 -43 -4 -12 -16 -8 0
-7 -15 -33 -44 -1 -12 -35 -9 0
-7 -15 -33 -44 -1 -17 -35 -4 0
-7 -15 -33 -44 -4 -12 -17 -9 0
-7 -15 -37 -40 -1 -13 -36 -6 0
-7 -15 -37 -40 -1 -14 -36 -5 0
-7 -15 -37 -40 -5 -13 -14 -6 0
-7 -15 -37 -43 -1 -13 -38 -8 0
-7 -15 -37 -43 -1 -16 -38 -5 0
-7 -15 -37 -43 -5 -13 -16 -8 0
-7 -15 -37 -44 -1 -13 -39 -9 0
-7 -15 -37 -44 -1 -17 -39 -5 0
-7 -15 -37 -44 -5 -13 -17 -9 0
-7 -15 -40 -43 -1 -14 -41 -8 0
-7 -15 -40 -43 -1 -16 -41 -6 0
-7 -15 -40 -43 -6 -14 -16 -8 0
-7 -15 -40 -44 -1 -14 -42 -9 0
-7 -15 -40 -44 -1 -17 -42 -6 0
-7 -15 -40 -44 -6 -14 -17 -9 0
-7 -15 -43 -44 -1 -16 -45 -9 0
-7 -15 -43 -44 -1 -17 -45 -8 0
-7 -15 -43 -44 -8 -16 -17 -9 0
-7 -22 -28 -33 -2 -18 -25 -4 0
-7 -22 -28 -33 -2 -19 -25 -3 0
-7 -22 -28 -33 -3 -18 -19 -4 0
-7 -22 -28 -37 -2 -18 -26 -5 0
-7 -22 -28 -37 -2 -20 -26 -3 0
-7 -22 -28 -37 -3 -18 -20 -5 0
-7 -22 -28 -40 -2 -18 -27 -6 0
-7 -22 -28 -40 -2 -21 -27 -3 0
-7 -22 -28 -40 -3 -18 -21 -6 0
-7 -22 -28 -43 -2 -18 -29 -8 0
-7 -22 -28 -43 -2 -23 -29 -3 0
-7 -22 -28 -43 -3 -18 -23 -8 0
-7 -22 -28 -44 -2 -18 -30 -9 0
-7 -22 -28 -44 -2 -24 -30 -3 0
-7 -22 -28 -44 -3 -18 -24 -9 0
-7 -22 -33 -37 -2 -19 -31 -5 0
-7 -22 -33 -37 -2 -20 -31 -4 0
-7 -22 -33 -37 -4 -19 -20 -5 0
-7 -22 -33 -40 -2 -19 -32 -6 0
-7 -22 -33 -40 -2 -21 -32 -4 0
-7 -22 -33 -40 -4 -19 -21 -6 0
-7 -22 -33 -43 -2 -19 -34 -8 0
-7 -22 -33 -43 -2 -23 -34 -4 0
-7 -22 -33 -43 -4 -19 -23 -8 0
-7 -22 -33 -44 -2 -19 -35 -9 0
-7 -22 -33 -44 -2 -24 -35 -4 0
-7 -22 -33 -44 -4 -19 -24 -9 0
-7 -22 -37 -40 -2 -20 -36 -6 0
-7 -22 -37 -40 -2 -21 -36 -5 0
-7 -22 -37 -40 -5 -20 -21 -6 0
-7 -22 -37 -43 -2 -20 -38 -8 0
-7 -22 -37 -43 -2 -23 -38 -5 0
-7 -22 -37 -43 -5 -20 -23 -8 0
-7 -22 -37 -44 -2 -20 -39 -9 0
-7 -22 -37 -44 -2 -24 -39 -5 0
-7 -22 -37 -44 -5 -20 -24 -9 0
-7 -22 -40 -43 -2 -21 -41 -8 0
-7 -22 -40 -43 -2 -23 -41 -6 0
-7 -22 -40 -43 -6 -21 -23 -8 0
-7 -22 -40 -44 -2 -21 -42 -9 0
-7 -22 -40 -44 -2 -24 -42 -6 0
-7 -22 -40 -44 -6 -21 -24 -9 0
-7 -22 -43 -44 -2 -23 -45 -9 0
-7 -22 -43 -44 -2 -24 -45 -8 0
-7 -22 -43 -44 -8 -23 -24 -9 0
-7 -28 -33 -37 -3 -25 -31 -5 0
-7 -28 -33 -37 -3 -26 -31 -4 0
-7 -28 -33 -37 -4 -25 -26 -5 0
-7 -28 -33 -40 -3 -25 -32 -6 0
-7 -28 -33 -40 -3 -27 -32 -4 0
-7 -28 -33 -40 -4 -25 -27 -6 0
-7 -28 -33 -43 -3 -25 -34 -8 0
-7 -28 -33 -43 -3 -29 -34 -4 0
-7 -28 -33 -43 -4 -25 -29 -8 0
-7 -28 -33 -44 -3 -25 -35 -9 0
-7 -28 -33 -44 -3 -30 -35 -4 0
-7 -28 -33 -44 -4 -25 -30 -9 0
-7 -28 -37 -40 -3 -26 -36 -6 0
-7 -28 -37 -40 -3 -27 -36 -5 0
-7 -28 -37 -40 -5 -26 -27 -6 0
-7 -28 -37 -43 -3 -26 -38 -8 0
-7 -28 -37 -43 -3 -29 -38 -5 0
-7 -28 -37 -43 -5 -26 -29 -8 0
-7 -28 -37 -44 -3 -26 -39 -9 0
-7 -28 -37 -44 -3 -30 -39 -5 0
-7 -28 -37 -44 -5 -26 -30 -9 0
-7 -28 -40 -43 -3 -27 -41 -8 0
-7 -28 -40 -43 -3 -29 -41 -6 0
-7 -28 -40 -43 -6 -27 -29 -8 0
-7 -28 -40 -44 -3 -27 -42 -9 0
-7 -28 -40 -44 -3 -30 -42 -6 0
-7 -28 -40 -44 -6 -27 -30 -9 0
-7 -28 -43 -44 -3 -29 -45 -9 0
-7 -28 -43 -44 -3 -30 -45 -8 0
-7 -28 -43 -44 -8 -29 -30 -9 0
-7 -33 -37 -40 -4 -31 -36 -6 0
-7 -33 -37 -40 -4 -32 -36 -5 0
-7 -33 -37 -40 -5 -31 -32 -6 0
-7 -33 -37 -43 -4 -31 -38 -8 0
-7 -33 -37 -43 -4 -34 -38 -5 0
-7 -33 -37 -43 -5 -31 -34 -8 0
-7 -33 -37 -44 -4 -31 -39 -9 0
-7 -33 -37 -44 -4 -35 -39 -5 0
-7 -33 -37 -44 -5 -31 -35 -9 0
-7 -33 -40 -43 -4 -32 -41 -8 0
-7 -33 -40 -43 -4 -34 -41 -6 0
-7 -33 -40 -43 -6 -32 -34 -8 0
-7 -33 -40 -44 -4 -32 -42 -9 0
-7 -33 -40 -44 -4 -35 -42 -6 0
-7 -33 -40 -44 -6 -32 -35 -9 0
-7 -33 -43 -44 -4 -34 -45 -9 0
-7 -33 -43 -44 -4 -35 -45 -8 0
-7 -33 -43 -44 -8 -34 -35 -9 0
-7 -37 -40 -43 -5 -36 -41 -8 0
-7 -37 -40 -43 -5 -38 -41 -6 0
-7 -37 -40 -43 -6 -36 -38 -8 0
-7 -37 -40 -44 -5 -36 -42 -9 0
-7 -37 -40 -44 -5 -39 -42 -6 0
-7 -37 -40 -44 -6 -36 -39 -9 0
-7 -37 -43 -44 -5 -38 -45 -9 0
-7 -37 -43 -44 -5 -39 -45 -8 0
-7 -37 -43 -44 -8 -38 -39 -9 0
-7 -40 -43 -44 -6 -41 -45 -9 0
-7 -40 -43 -44 -6 -42 -45 -8 0
-7 -40 -43 -44 -8 -41 -42 -9 0
-15 -22 -28 -33 -10 -18 -25 -12 0
-15 -22 -28 -33 -10 -19 -25 -11 0
-15 -22 -28 -33 -11 -18 -19 -12 0
-15 -22 -28 -37 -10 -18 -26 -13 0
-15 -22 -28 -37 -10 -20 -26 -11 0
-15 -22 -28 -37 -11 -18 -20 -13 0
-15 -22 -28 -40 -10 -18 -27 -14 0
-15 -22 -28 -40 -10 -21 -27 -11 0
-15 -22 -28 -40 -11 -18 -21 -14 0
-15 -22 -28 -43 -10 -18 -29 -16 0
-15 -22 -28 -43 -10 -23 -29 -11 0
-15 -22 -28 -43 -11 -18 -23 -16 0
-15 -22 -28 -44 -10 -18 -30 -17 0
-15 -22 -28 -44 -10 -24 -30 -11 0
-15 -22 -28 -44 -11 -18 -24 -17 0
-15 -22 -33 -37 -10 -19 -31 -13 0
-15 -22 -33 -37 -10 -20 -31 -12 0
-15 -22 -33 -37 -12 -19 -20 -13 0
-15 -22 -33 -40 -10 -19 -32 -14 0
-15 -22 -33 -40 -10 -21 -32 -12 0
-15 -22 -33 -40 -12 -19 -21 -14 0
-15 -22 -33 -43 -10 -19 -34 -16 0
-15 -22 -33 -43 -10 -23 -34 -12 0
-15 -22 -33 -43 -12 -19 -23 -16 0
-15 -22 -33 -44 -10 -19 -35 -17 0
-15 -22 -33 -44 -10 -24 -35 -12 0
-15 -22 -33 -44 -12 -19 -24 -17 0
-15 -22 -37 -40 -10 -20 -36 -14 0
-15 -22 -37 -40 -10 -21 -36 -13 0
-15 -22 -37 -40 -13 -20 -21 -14 0
-15 -22 -37 -43 -10 -20 -38 -16 0
-15 -22 -37 -43 -10 -23 -38 -13 0
-15 -22 -37 -43 -13 -20 -23 -16 0
-15 -22 -37 -44 -10 -20 -39 -17 0
-15 -22 -37 -44 -10 -24 -39 -13 0
-15 -22 -37 -44 -13 -20 -24 -17 0
-15 -22 -40 -43 -10 -21 -41 -16 0
-15 -22 -40 -43 -10 -23 -41 -14 0
-15 -22 -40 -43 -14 -21 -23 -16 0
-15 -22 -40 -44 -10 -21 -42 -17 0
-15 -22 -40 -44 -10 -24 -42 -14 0
-15 -22 -40 -44 -14 -21 -24 -17 0
-15 -22 -43 -44 -10 -23 -45 -17 0
-15 -22 -43 -44 -10 -24 -45 -16 0
-15 -22 -43 -44 -16 -23 -24 -17 0
-15 -28 -33 -37 -11 -25 -31 -13 0
-15 -28 -33 -37 -11 -26 -31 -12 0
-15 -28 -33 -37 -12 -25 -26 -13 0
-15 -28 -33 -40 -11 -25 -32 -14 0
-15 -28 -33 -40 -11 -27 -32 -12 0
-15 -28 -33 -40 -12 -25 -27 -14 0
-15 -28 -33 -43 -11 -25 -34 -16 0
-15 -28 -33 -43 -11 -29 -34 -12 0
-15 -28 -33 -43 -12 -25 -29 -16 0
-15 -28 -33 -44 -11 -25 -35 -17 0
-15 -28 -33 -44 -11 -30 -35 -12 0
-15 -28 -33 -44 -12 -25 -30 -17 0
-15 -28 -37 -40 -11 -26 -36 -14 0
-15 -28 -37 -40 -11 -27 -36 -13 0
-15 -28 -37 -40 -13 -26 -27 -14 0
-15 -28 -37 -43 -11 -26 -38 -16 0
-15 -28 -37 -43 -11 -29 -38 -13 0
-15 -28 -37 -43 -13 -26 -29 -16 0
-15 -28 -37 -44 -11 -26 -39 -17 0
-15 -28 -37 -44 -11 -30 -39 -13 0
-15 -28 -37 -44 -13 -26 -30 -17 0
-15 -28 -40 -43 -11 -27 -41 -16 0
-15 -28 -40 -43 -11 -29 -41 -14 0
-15 -28 -40 -43 -14 -27 -29 -16 0
-15 -28 -40 -44 -11 -27 -42 -17 0
-15 -28 -40 -44 -11 -30 -42 -14 0
-15 -28 -40 -44 -14 -27 -30 -17 0
-15 -28 -43 -44 -11 -29 -45 -17 0
-15 -28 -43 -44 -11 -30 -45 -16 0
-15 -28 -43 -44 -16 -29 -30 -17 0
-15 -33 -37 -40 -12 -31 -36 -14 0
-15 -33 -37 -40 -12 -32 -36 -13 0
-15 -33 -37 -40 -13 -31 -32 -14 0
-15 -33 -37 -43 -12 -31 -38 -16 0
-15 -33 -37 -43 -12 -34 -38 -13 0
-15 -33 -37 -43 -13 -31 -34 -16 0
-15 -33 -37 -44 -12 -31 -39 -17 0
-15 -33 -37 -44 -12 -35 -39 -13 0
-15 -33 -37 -44 -13 -31 -35 -17 0
-15 -33 -40 -43 -12 -32 -41 -16 0
-15 -33 -40 -43 -12 -34 -41 -14 0
-15 -33 -40 -43 -14 -32 -34 -16 0
-15 -33 -40 -44 -12 -32 -42 -17 0
-15 -33 -40 -44 -12 -35 -42 -14 0
-15 -33 -40 -44 -14 -32 -35 -17 0
-15 -33 -43 -44 -12 -34 -45 -17 0
-15 -33 -43 -44 -12 -35 -45 -16 0
-15 -33 -43 -44 -16 -34 -35 -17 0
-15 -37 -40 -43 -13 -36 -41 -16 0
-15 -37 -40 -43 -13 -38 -41 -14 0
-15 -37 -40 -43 -14 -36 -38 -16 0
-15 -37 -40 -44 -13 -36 -42 -17 0
-15 -37 -40 -44 -13 -39 -42 -14 0
-15 -37 -40 -44 -14 -36 -39 -17 0
-15 -37 -43 -44 -13 -38 -45 -17 0
-15 -37 -43 -44 -13 -39 -45 -16 0
-15 -37 -43 -44 -16 -38 -39 -17 0
-15 -40 -43 -44 -14 -41 -45 -17 0
-15 -40 -43 -44 -14 -42 -45 -16 0
-15 -40 -43 -44 -16 -41 -42 -17 0
-22 -28 -33 -37 -18 -25 -31 -20 0
-22 -28 -33 -37 -18 -26 -31 -19 0
-22 -28 -33 -37 -19 -25 -26 -20 0
-22 -28 -33 -40 -18 -25 -32 -21 0
-22 -28 -33 -40 -18 -27 -32 -19 0
-22 -28 -33 -40 -19 -25 -27 -21 0
-22 -28 -33 -43 -18 -25 -34 -23 0
-22 -28 -33 -43 -18 -29 -34 -19 0
-22 -28 -33 -43 -19 -25 -29 -23 0
-22 -28 -33 -44 -18 -25 -35 -24 0
-22 -28 -33 -44 -18 -30 -35 -19 0
-22 -28 -33 -44 -19 -25 -30 -24 0
-22 -28 -37 -40 -18 -26 -36 -21 0
-22 -28 -37 -40 -18 -27 -36 -20 0
-22 -28 -37 -40 -20 -26 -27 -21 0
-22 -28 -37 -43 -18 -26 -38 -23 0
-22 -28 -37 -43 -18 -29 -38 -20 0
-22 -28 -37 -43 -20 -26 -29 -23 0
-22 -28 -37 -44 -18 -26 -39 -24 0
-22 -28 -37 -44 -18 -30 -39 -20 0
-22 -28 -37 -44 -20 -26 -30 -24 0
-22 -28 -40 -43 -18 -27 -41 -23 0
-22 -28 -40 -43 -18 -29 -41 -21 0
-22 -28 -40 -43 -21 -27 -29 -23 0
-22 -28 -40 -44 -18 -27 -42 -24 0
-22 -28 -40 -44 -18 -30 -42 -21 0
-22 -28 -40 -44 -21 -27 -30 -24 0
-22 -28 -43 -44 -18 -29 -45 -24 0
-22 -28 -43 -44 -18 -30 -45 -23 0
-22 -28 -43 -44 -23 -29 -30 -24 0
-22 -33 -37 -40 -19 -31 -36 -21 0
-22 -33 -37 -40 -19 -32 -36 -20 0
-22 -33 -37 -40 -20 -31 -32 -21 0
-22 -33 -37 -43 -19 -31 -38 -23 0
-22 -33 -37 -43 -19 -34 -38 -20 0
-22 -33 -37 -43 -20 -31 -34 -23 0
-22 -33 -37 -44 -19 -31 -39 -24 0
-22 -33 -37 -44 -19 -35 -39 -20 0
-22 -33 -37 -44 -20 -31 -35 -24 0
-22 -33 -40 -43 -19 -32 -41 -23 0
-22 -33 -40 -43 -19 -34 -41 -21 0
-22 -33 -40 -43 -21 -32 -34 -23 0
-22 -33 -40 -44 -19 -32 -42 -24 0
-22 -33 -40 -44 -19 -35 -42 -21 0
-22 -33 -40 -44 -21 -32 -35 -24 0
-22 -33 -43 -44 -19 -34 -45 -24 0
-22 -33 -43 -44 -19 -35 -45 -23 0
-22 -33 -43 -44 -23 -34 -35 -24 0
-22 -37 -40 -43 -20 -36 -41 -23 0
-22 -37 -40 -43 -20 -38 -41 -21 0
-22 -37 -40 -43 -21 -36 -38 -23 0
-22 -37 -40 -44 -20 -36 -42 -24 0
-22 -37 -40 -44 -20 -39 -42 -21 0
-22 -37 -40 -44 -21 -36 -39 -24 0
-22 -37 -43 -44 -20 -38 -45 -24 0
-22 -37 -43 -44 -20 -39 -45 -23 0
-22 -37 -43 -44 -23 -38 -39 -24 0
-22 -40 -43 -44 -21 -41 -45 -24 0
-22 -40 -43 -44 -21 -42 -45 -23 0
-22 -40 -43 -44 -23 -41 -42 -24 0
-28 -33 -37 -40 -25 -31 -36 -27 0
-28 -33 -37 -40 -25 -32 -36 -26 0
-28 -33 -37 -40 -26 -31 -32 -27 0
-28 -33 -37 -43 -25 -31 -38 -29 0
-28 -33 -37 -43 -25 -34 -38 -26 0
-28 -33 -37 -43 -26 -31 -34 -29 0
-28 -33 -37 -44 -25 -31 -39 -30 0
-28 -33 -37 -44 -25 -35 -39 -26 0
-28 -33 -37 -44 -26 -31 -35 -30 0
-28 -33 -40 -43 -25 -32 -41 -29 0
-28 -33 -40 -43 -25 -34 -41 -27 0
-28 -33 -40 -43 -27 -32 -34 -29 0
-28 -33 -40 -44 -25 -32 -42 -30 0
-28 -33 -40 -44 -25 -35 -42 -27 0
-28 -33 -40 -44 -27 -32 -35 -30 0
-28 -33 -43 -44 -25 -34 -45 -30 0
-28 -33 -43 -44 -25 -35 -45 -29 0
-28 -33 -43 -44 -29 -34 -35 -30 0
-28 -37 -40 -43 -26 -36 -41 -29 0
-28 -37 -40 -43 -26 -38 -41 -27 0
-28 -37 -40 -43 -27 -36 -38 -29 0
-28 -37 -40 -44 -26 -36 -42 -30 0
-28 -37 -40 -44 -26 -39 -42 -27 0
-28 -37 -40 -44 -27 -36 -39 -30 0
-28 -37 -43 -44 -26 -38 -45 -30 0
-28 -37 -43 -44 -26 -39 -45 -29 0
-28 -37 -43 -44 -29 -38 -39 -30 0
-28 -40 -43 -44 -27 -41 -45 -30 0
-28 -40 -43 -44 -27 -42 -45 -29 0
-28 -40 -43 -44 -29 -41 -42 -30 0
-33 -37 -40 -43 -31 -36 -41 -34 0
-33 -37 -40 -43 -31 -38 -41 -32 0
-33 -37 -40 -43 -32 -36 -38 -34 0
-33 -37 -40 -44 -31 -36 -42 -35 0
-33 -37 -40 -44 -31 -39 -42 -32 0
-33 -37 -40 -44 -32 -36 -39 -35 0
-33 -37 -43 -44 -31 -38 -45 -35 0
-33 -37 -43 -44 -31 -39 -45 -34 0
-33 -37 -43 -44 -34 -38 -39 -35 0
-33 -40 -43 -44 -32 -41 -45 -35 0
-33 -40 -43 -44 -32 -42 -45 -34 0
-33 -40 -43 -44 -34 -41 -42 -35 0
-37 -40 -43 -44 -36 -41 -45 -39 0
-37 -40 -43 -44 -36 -42 -45 -38 0
-37 -40 -43 -44 -38 -41 -42 -39 0
-8 -16 -23 -29 -1 -10 -18 -3 0
-8 -16 -23 -29 -1 -11 -18 -2 0
-8 -16 -23 -29 -2 -10 -11 -3 0
-8 -16 -23 -34 -1 -10 -19 -4 0
-8 -16 -23 -34 -1 -12 -19 -2 0
-8 -16 -23 -34 -2 -10 -12 -4 0
-8 -16 -23 -38 -1 -10 -20 -5 0
-8 -16 -23 -38 -1 -13 -20 -2 0
-8 -16 -23 -38 -2 -10 -13 -5 0
-8 -16 -23 -41 -1 -10 -21 -6 0
-8 -16 -23 -41 -1 -14 -21 -2 0
-8 -16 -23 -41 -2 -10 -14 -6 0
-8 -16 -23 -43 -1 -10 -22 -7 0
-8 -16 -23 -43 -1 -15 -22 -2 0
-8 -16 -23 -43 -2 -10 -15 -7 0
-8 -16 -23 -45 -1 -10 -24 -9 0
-8 -16 -23 -45 -1 -17 -24 -2 0
-8 -16 -23 -45 -2 -10 -17 -9 0
-8 -16 -29 -34 -1 -11 -25 -4 0
-8 -16 -29 -34 -1 -12 -25 -3 0
-8 -16 -29 -34 -3 -11 -12 -4 0
-8 -16 -29 -38 -1 -11 -26 -5 0
-8 -16 -29 -38 -1 -13 -26 -3 0
-8 -16 -29 -38 -3 -11 -13 -5 0
-8 -16 -29 -41 -1 -11 -27 -6 0
-8 -16 -29 -41 -1 -14 -27 -3 0
-8 -16 -29 -41 -3 -11 -14 -6 0
-8 -16 -29 -43 -1 -11 -28 -7 0
-8 -16 -29 -43 -1 -15 -28 -3 0
-8 -16 -29 -43 -3 -11 -15 -7 0
-8 -16 -29 -45 -1 -11 -30 -9 0
-8 -16 -29 -45 -1 -17 -30 -3 0
-8 -16 -29 -45 -3 -11 -17 -9 0
-8 -16 -34 -38 -1 -12 -31 -5 0
-8 -16 -34 -38 -1 -13 -31 -4 0
-8 -16 -34 -38 -4 -12 -13 -5 0
-8 -16 -34 -41 -1 -12 -32 -6 0
-8 -16 -34 -41 -1 -14 -32 -4 0
-8 -16 -34 -41 -4 -12 -14 -6 0
-8 -16 -34 -43 -1 -12 -33 -7 0
-8 -16 -34 -43 -1 -15 -33 -4 0
-8 -16 -34 -43 -4 -12 -15 -7 0
-8 -16 -34 -45 -1 -12 -35 -9 0
-8 -16 -34 -45 -1 -17 -35 -4 0
-8 -16 -34 -45 -4 -12 -17 -9 0
-8 -16 -38 -41 -1 -13 -36 -6 0
-8 -16 -38 -41 -1 -14 -36 -5 0
-8 -16 -38 -41 -5 -13 -14 -6 0
-8 -16 -38 -43 -1 -13 -37 -7 0
-8 -16 -38 -43 -1 -15 -37 -5 0
-8 -16 -38 -43 -5 -13 -15 -7 0
-8 -16 -38 -45 -1 -13 -39 -9 0
-8 -16 -38 -45 -1 -17 -39 -5 0
-8 -16 -38 -45 -5 -13 -17 -9 0
-8 -16 -41 -43 -1 -14 -40 -7 0
-8 -16 -41 -43 -1 -15 -40 -6 0
-8 -16 -41 -43 -6 -14 -15 -7 0
-8 -16 -41 -45 -1 -14 -42 -9 0
-8 -16 -41 -45 -1 -17 -42 -6 0
-8 -16 -41 -45 -6 -14 -17 -9 0
-8 -16 -43 -45 -1 -15 -44 -9 0
-8 -16 -43 -45 -1 -17 -44 -7 0
-8 -16 -43 -45 -7 -15 -17 -9 0
-8 -23 -29 -34 -2 -18 -25 -4 0
-8 -23 -29 -34 -2 -19 -25 -3 0
-8 -23 -29 -34 -3 -18 -19 -4 0
-8 -23 -29 -38 -2 -18 -26 -5 0
-8 -23 -29 -38 -2 -20 -26 -3 0
-8 -23 -29 -38 -3 -18 -20 -5 0
-8 -23 -29 -41 -2 -18 -27 -6 0
-8 -23 -29 -41 -2 -21 -27 -3 0
-8 -23 -29 -41 -3 -18 -21 -6 0
-8 -23 -29 -43 -2 -18 -28 -7 0
-8 -23 -29 -43 -2 -22 -28 -3 0
-8 -23 -29 -43 -3 -18 -22 -7 0
-8 -23 -29 -45 -2 -18 -30 -9 0
-8 -23 -29 -45 -2 -24 -30 -3 0
-8 -23 -29 -45 -3 -18 -24 -9 0
-8 -23 -34 -38 -2 -19 -31 -5 0
-8 -23 -34 -38 -2 -20 -31 -4 0
-8 -23 -34 -38 -4 -19 -20 -5 0
-8 -23 -34 -41 -2 -19 -32 -6 0
-8 -23 -34 -41 -2 -21 -32 -4 0
-8 -23 -34 -41 -4 -19 -21 -6 0
-8 -23 -34 -43 -2 -19 -33 -7 0
-8 -23 -34 -43 -2 -22 -33 -4 0
-8 -23 -34 -43 -4 -19 -22 -7 0
-8 -23 -34 -45 -2 -19 -35 -9 0
-8 -23 -34 -45 -2 -24 -35 -4 0
-8 -23 -34 -45 -4 -19 -24 -9 0
-8 -23 -38 -41 -2 -20 -36 -6 0
-8 -23 -38 -41 -2 -21 -36 -5 0
-8 -23 -38 -41 -5 -20 -21 -6 0
-8 -23 -38 -43 -2 -20 -37 -7 0
-8 -23 -38 -43 -2 -22 -37 -5 0
-8 -23 -38 -43 -5 -20 -22 -7 0
-8 -23 -38 -45 -2 -20 -39 -9 0
-8 -23 -38 -45 -2 -24 -39 -5 0
-8 -23 -38 -45 -5 -20 -24 -9 0
-8 -23 -41 -43 -2 -21 -40 -7 0
-8 -23 -41 -43 -2 -22 -40 -6 0
-8 -23 -41 -43 -6 -21 -22 -7 0
-8 -23 -41 -45 -2 -21 -42 -9 0
-8 -23 -41 -45 -2 -24 -42 -6 0
-8 -23 -41 -45 -6 -21 -24 -9 0
-8 -23 -43 -45 -2 -22 -44 -9 0
-8 -23 -43 -45 -2 -24 -44 -7 0
-8 -23 -43 -45 -7 -22 -24 -9 0
-8 -29 -34 -38 -3 -25 -31 -5 0
-8 -29 -34 -38 -3 -26 -31 -4 0
-8 -29 -34 -38 -4 -25 -26 -5 0
-8 -29 -34 -41 -3 -25 -32 -6 0
-8 -29 -34 -41 -3 -27 -32 -4 0
-8 -29 -34 -41 -4 -25 -27 -6 0
-8 -29 -34 -43 -3 -25 -33 -7 0
-8 -29 -34 -43 -3 -28 -33 -4 0
-8 -29 -34 -43 -4 -25 -28 -7 0
-8 -29 -34 -45 -3 -25 -35 -9 0
-8 -29 -34 -45 -3 -30 -35 -4 0
-8 -29 -34 -45 -4 -25 -30 -9 0
-8 -29 -38 -41 -3 -26 -36 -6 0
-8 -29 -38 -41 -3 -27 -36 -5 0
-8 -29 -38 -41 -5 -26 -27 -6 0
-8 -29 -38 -43 -3 -26 -37 -7 0
-8 -29 -38 -43 -3 -28 -37 -5 0
-8 -29 -38 -43 -5 -26 -28 -7 0
-8 -29 -38 -45 -3 -26 -39 -9 0
-8 -29 -38 -45 -3 -30 -39 -5 0
-8 -29 -38 -45 -5 -26 -30 -9 0
-8 -29 -41 -43 -3 -27 -40 -7 0
-8 -29 -41 -43 -3 -28 -40 -6 0
-8 -29 -41 -43 -6 -27 -28 -7 0
-8 -29 -41 -45 -3 -27 -42 -9 0
-8 -29 -41 -45 -3 -30 -42 -6 0
-8 -29 -41 -45 -6 -27 -30 -9 0
-8 -29 -43 -45 -3 -28 -44 -9 0
-8 -29 -43 -45 -3 -30 -44 -7 0
-8 -29 -43 -45 -7 -28 -30 -9 0
-8 -34 -38 -41 -4 -31 -36 -6 0
-8 -34 -38 -41 -4 -32 -36 -5 0
-8 -34 -38 -41 -5 -31 -32 -6 0
-8 -34 -38 -43 -4 -31 -37 -7 0
-8 -34 -38 -43 -4 -33 -37 -5 0
-8 -34 -38 -43 -5 -31 -33 -7 0
-8 -34 -38 -45 -4 -31 -39 -9 0
-8 -34 -38 -45 -4 -35 -39 -5 0
-8 -34 -38 -45 -5 -31 -35 -9 0
-8 -34 -41 -43 -4 -32 -40 -7 0
-8 -34 -41 -43 -4 -33 -40 -6 0
-8 -34 -41 -43 -6 -32 -33 -7 0
-8 -34 -41 -45 -4 -32 -42 -9 0
-8 -34 -41 -45 -4 -35 -42 -6 0
-8 -34 -41 -45 -6 -32 -35 -9 0
-8 -34 -43 -45 -4 -33 -44 -9 0
-8 -34 -43 -45 -4 -35 -44 -7 0
-8 -34 -43 -45 -7 -33 -35 -9 0
-8 -38 -41 -43 -5 -36 -40 -7 0
-8 -38 -41 -43 -5 -37 -40 -6 0
-8 -38 -41 -43 -6 -36 -37 -7 0
-8 -38 -41 -45 -5 -36 -42 -9 0
-8 -38 -41 -45 -5 -39 -42 -6 0
-8 -38 -41 -45 -6 -36 -39 -9 0
-8 -38 -43 -45 -5 -37 -44 -9 0
-8 -38 -43 -45 -5 -39 -44 -7 0
-8 -38 -43 -45 -7 -37 -39 -9 0
-8 -41 -43 -45 -6 -40 -44 -9 0
-8 -41 -43 -45 -6 -42 -44 -7 0
-8 -41 -43 -45 -7 -40 -42 -9 0
-16 -23 -29 -34 -10 -18 -25 -12 0
-16 -23 -29 -34 -10 -19 -25 -11 0
-16 -23 -29 -34 -11 -18 -19 -12 0
-16 -23 -29 -38 -10 -18 -26 -13 0
-16 -23 -29 -38 -10 -20 -26 -11 0
-16 -23 -29 -38 -11 -18 -20 -13 0
-16 -23 -29 -41 -10 -18 -27 -14 0
-16 -23 -29 -41 -10 -21 -27 -11 0
-16 -23 -29 -41 -11 -18 -21 -14 0
-16 -23 -29 -43 -10 -18 -28 -15 0
-16 -23 -29 -43 -10 -22 -28 -11 0
-16 -23 -29 -43 -11 -18 -22 -15 0
-16 -23 -29 -45 -10 -18 -30 -17 0
-16 -23 -29 -45 -10 -24 -30 -11 0
-16 -23 -29 -45 -11 -18 -24 -17 0
-16 -23 -34 -38 -10 -19 -31 -13 0
-16 -23 -34 -38 -10 -20 -31 -12 0
-16 -23 -34 -38 -12 -19 -20 -13 0
-16 -23 -34 -41 -10 -19 -32 -14 0
-16 -23 -34 -41 -10 -21 -32 -12 0
-16 -23 -34 -41 -12 -19 -21 -14 0
-16 -23 -34 -43 -10 -19 -33 -15 0
-16 -23 -34 -43 -10 -22 -33 -12 0
-16 -23 -34 -43 -12 -19 -22 -15 0
-16 -23 -34 -45 -10 -19 -35 -17 0
-16 -23 -34 -45 -10 -24 -35 -12 0
-16 -23 -34 -45 -12 -19 -24 -17 0
-16 -23 -38 -41 -10 -20 -36 -14 0
-16 -23 -38 -41 -10 -21 -36 -13 0
-16 -23 -38 -41 -13 -20 -21 -14 0
-16 -23 -38 -43 -10 -20 -37 -15 0
-16 -23 -38 -43 -10 -22 -37 -13 0
-16 -23 -38 -43 -13 -20 -22 -15 0
-16 -23 -38 -45 -10 -20 -39 -17 0
-16 -23 -38 -45 -10 -24 -39 -13 0
-16 -23 -38 -45 -13 -20 -24 -17 0
-16 -23 -41 -43 -10 -21 -40 -15 0
-16 -23 -41 -43 -10 -22 -40 -14 0
-16 -23 -41 -43 -14 -21 -22 -15 0
-16 -23 -41 -45 -10 -21 -42 -17 0
-16 -23 -41 -45 -10 -24 -42 -14 0
-16 -23 -41 -45 -14 -21 -24 -17 0
-16 -23 -43 -45 -10 -22 -44 -17 0
-16 -23 -43 -45 -10 -24 -44 -15 0
-16 -23 -43 -45 -15 -22 -24 -17 0
-16 -29 -34 -38 -11 -25 -31 -13 0
-16 -29 -34 -38 -11 -26 -31 -12 0
-16 -29 -34 -38 -12 -25 -26 -13 0
-16 -29 -34 -41 -11 -25 -32 -14 0
-16 -29 -34 -41 -11 -27 -32 -12 0
-16 -29 -34 -41 -12 -25 -27 -14 0
-16 -29 -34 -43 -11 -25 -33 -15 0
-16 -29 -34 -43 -11 -28 -33 -12 0
-16 -29 -34 -43 -12 -25 -28 -15 0
-16 -29 -34 -45 -11 -25 -35 -17 0
-16 -29 -34 -45 -11 -30 -35 -12 0
-16 -29 -34 -45 -12 -25 -30 -17 0
-16 -29 -38 -41 -11 -26 -36 -14 0
-16 -29 -38 -41 -11 -27 -36 -13 0
-16 -29 -38 -41 -13 -26 -27 -14 0
-16 -29 -38 -43 -11 -26 -37 -15 0
-16 -29 -38 -43 -11 -28 -37 -13 0
-16 -29 -38 -43 -13 -26 -28 -15 0
-16 -29 -38 -45 -11 -26 -39 -17 0
-16 -29 -38 -45 -11 -30 -39 -13 0
-16 -29 -38 -45 -13 -26 -30 -17 0
-16 -29 -41 -43 -11 -27 -40 -15 0
-16 -29 -41 -43 -11 -28 -40 -14 0
-16 -29 -41 -43 -14 -27 -28 -15 0
-16 -29 -41 -45 -11 -27 -42 -17 0
-16 -29 -41 -45 -11 -30 -42 -14 0
-16 -29 -41 -45 -14 -27 -30 -17 0
-16 -29 -43 -45 -11 -28 -44 -17 0
-16 -29 -43 -45 -11 -30 -44 -15 0
-16 -29 -43 -45 -15 -28 -30 -17 0
-16 -34 -38 -41 -12 -31 -36 -14 0
-16 -34 -38 -41 -12 -32 -36 -13 0
-16 -34 -38 -41 -13 -31 -32 -14 0
-16 -34 -38 -43 -12 -31 -37 -15 0
-16 -34 -38 -43 -12 -33 -37 -13 0
-16 -34 -38 -43 -13 -31 -33 -15 0
-16 -34 -38 -45 -12 -31 -39 -17 0
-16 -34 -38 -45 -12 -35 -39 -13 0
-16 -34 -38 -45 -13 -31 -35 -17 0
-16 -34 -41 -43 -12 -32 -40 -15 0
-16 -34 -41 -43 -12 -33 -40 -14 0
-16 -34 -41 -43 -14 -32 -33 -15 0
-16 -34 -41 -45 -12 -32 -42 -17 0
-16 -34 -41 -45 -12 -35 -42 -14 0
-16 -34 -41 -45 -14 -32 -35 -17 0
-16 -34 -43 -45 -12 -33 -44 -17 0
-16 -34 -43 -45 -12 -35 -44 -15 0
-16 -34 -43 -45 -15 -33 -35 -17 0
-16 -38 -41 -43 -13 -36 -40 -15 0
-16 -38 -41 -43 -13 -37 -40 -14 0
-16 -38 -41 -43 -14 -36 -37 -15 0
-16 -38 -41 -45 -13 -36 -42 -17 0
-16 -38 -41 -45 -13 -39 -42 -14 0
-16 -38 -41 -45 -14 -36 -39 -17 0
-16 -38 -43 -45 -13 -37 -44 -17 0
-16 -38 -43 -45 -13 -39 -44 -15 0
-16 -38 -43 -45 -15 -37 -39 -17 0
-16 -41 -43 -45 -14 -40 -44 -17 0
-16 -41 -43 -45 -14 -42 -44 -15 0
-16 -41 -43 -45 -15 -40 -42 -17 0
-23 -29 -34 -38 -18 -25 -31 -20 0
-23 -29 -34 -38 -18 -26 -31 -19 0
-23 -29 -34 -38 -19 -25 -26 -20 0
-23 -29 -34 -41 -18 -25 -32 -21 0
-23 -29 -34 -41 -18 -27 -32 -19 0
-23 -29 -34 -41 -19 -25 -27 -21 0
-23 -29 -34 -43 -18 -25 -33 -22 0
-23 -29 -34 -43 -18 -28 -33 -19 0
-23 -29 -34 -43 -19 -25 -28 -22 0
-23 -29 -34 -45 -18 -25 -35 -24 0
-23 -29 -34 -45 -18 -30 -35 -19 0
-23 -29 -34 -45 -19 -25 -30 -24 0
-23 -29 -38 -41 -18 -26 -36 -21 0
-23 -29 -38 -41 -18 -27 -36 -20 0
-23 -29 -38 -41 -20 -26 -27 -21 0
-23 -29 -38 -43 -18 -26 -37 -22 0
-23 -29 -38 -43 -18 -28 -37 -20 0
-23 -29 -38 -43 -20 -26 -28 -22 0
-23 -29 -38 -45 -18 -26 -39 -24 0
-23 -29 -38 -45 -18 -30 -39 -20 0
-23 -29 -38 -45 -20 -26 -30 -24 0
-23 -29 -41 -43 -18 -27 -40 -22 0
-23 -29 -41 -43 -18 -28 -40 -21 0
-23 -29 -41 -43 -21 -27 -28 -22 0
-23 -29 -41 -45 -18 -27 -42 -24 0
-23 -29 -41 -45 -18 -30 -42 -21 0
-23 -29 -41 -45 -21 -27 -30 -24 0
-23 -29 -43 -45 -18 -28 -44 -24 0
-23 -29 -43 -45 -18 -30 -44 -22 0
-23 -29 -43 -45 -22 -28 -30 -24 0
-23 -34 -38 -41 -19 -31 -36 -21 0
-23 -34 -38 -41 -19 -32 -36 -20 0
-23 -34 -38 -41 -20 -31 -32 -21 0
-23 -34 -38 -43 -19 -31 -37 -22 0
-23 -34 -38 -43 -19 -33 -37 -20 0
-23 -34 -38 -43 -20 -31 -33 -22 0
-23 -34 -38 -45 -19 -31 -39 -24 0
-23 -34 -38 -45 -19 -35 -39 -20 0
-23 -34 -38 -45 -20 -31 -35 -24 0
-23 -34 -41 -43 -19 -32 -40 -22 0
-23 -34 -41 -43 -19 -33 -40 -21 0
-23 -34 -41 -43 -21 -32 -33 -22 0
-23 -34 -41 -45 -19 -32 -42 -24 0
-23 -34 -41 -45 -19 -35 -42 -21 0
-23 -34 -41 -45 -21 -32 -35 -24 0
-23 -34 -43 -45 -19 -33 -44 -24 0
-23 -34 -43 -45 -19 -35 -44 -22 0
-23 -34 -43 -45 -22 -33 -35 -24 0
-23 -38 -41 -43 -20 -36 -40 -22 0
-23 -38 -41 -43 -20 -37 -40 -21 0
-23 -38 -41 -43 -21 -36 -37 -22 0
-23 -38 -41 -45 -20 -36 -42 -24 0
-23 -38 -41 -45 -20 -39 -42 -21 0
-23 -38 -41 -45 -21 -36 -39 -24 0
-23 -38 -43 -45 -20 -37 -44 -24 0
-23 -38 -43 -45 -20 -39 -44 -22 0
-23 -38 -43 -45 -22 -37 -39 -24 0
-23 -41 -43 -45 -21 -40 -44 -24 0
-23 -41 -43 -45 -21 -42 -44 -22 0
-23 -41 -43 -45 -22 -40 -42 -24 0
-29 -34 -38 -41 -25 -31 -36 -27 0
-29 -34 -38 -41 -25 -32 -36 -26 0
-29 -34 -38 -41 -26 -31 -32 -27 0
-29 -34 -38 -43 -25 -31 -37 -28 0
-29 -34 -38 -43 -25 -33 -37 -26 0
-29 -34 -38 -43 -26 -31 -33 -28 0
-29 -34 -38 -45 -25 -31 -39 -30 0
-29 -34 -38 -45 -25 -35 -39 -26 0
-29 -34 -38 -45 -26 -31 -35 -30 0
-29 -34 -41 -43 -25 -32 -40 -28 0
-29 -34 -41 -43 -25 -33 -40 -27 0
-29 -34 -41 -43 -27 -32 -33 -28 0
-29 -34 -41 -45 -25 -32 -42 -30 0
-29 -34 -41 -45 -25 -35 -42 -27 0
-29 -34 -41 -45 -27 -32 -35 -30 0
-29 -34 -43 -45 -25 -33 -44 -30 0
-29 -34 -43 -45 -25 -35 -44 -28 0
-29 -34 -43 -45 -28 -33 -35 -30 0
-29 -38 -41 -43 -26 -36 -40 -28 0
-29 -38 -41 -43 -26 -37 -40 -27 0
-29 -38 -41 -43 -27 -36 -37 -28 0
-29 -38 -41 -45 -26 -36 -42 -30 0
-29 -38 -41 -45 -26 -39 -42 -27 0
-29 -38 -41 -45 -27 -36 -39 -30 0
-29 -38 -43 -45 -26 -37 -44 -30 0
-29 -38 -43 -45 -26 -39 -44 -28 0
-29 -38 -43 -45 -28 -37 -39 -30 0
-29 -41 -43 -45 -27 -40 -44 -30 0
-29 -41 -43 -45 -27 -42 -44 -28 0
-29 -41 -43 -45 -28 -40 -42 -30 0
-34 -38 -41 -43 -31 -36 -40 -33 0
-34 -38 -41 -43 -31 -37 -40 -32 0
-34 -38 -41 -43 -32 -36 -37 -33 0
-34 -38 -41 -45 -31 -36 -42 -35 0
-34 -38 -41 -45 -31 -39 -42 -32 0
-34 -38 -41 -45 -32 -36 -39 -35 0
-34 -38 -43 -45 -31 -37 -44 -35 0
-34 -38 -43 -45 -31 -39 -44 -33 0
-34 -38 -43 -45 -33 -37 -39 -35 0
-34 -41 -43 -45 -32 -40 -44 -35 0
-34 -41 -43 -45 -32 -42 -44 -33 0
-34 -41 -43 -45 -33 -40 -42 -35 0
-38 -41 -43 -45 -36 -40 -44 -39 0
-38 -41 -43 -45 -36 -42 -44 -37 0
-38 -41 -43 -45 -37 -40 -42 -39 0
-9 -17 -24 -30 -1 -10 -18 -3 0
-9 -17 -24 -30 -1 -11 -18 -2 0
-9 -17 -24 -30 -2 -10 -11 -3 0
-9 -17 -24 -35 -1 -10 -19 -4 0
-9 -17 -24 -35 -1 -12 -19 -2 0
-9 -17 -24 -35 -2 -10 -12 -4 0
-9 -17 -24 -39 -1 -10 -20 -5 0
-9 -17 -24 -39 -1 -13 -20 -2 0
-9 -17 -24 -39 -2 -10 -13 -5 0
-9 -17 -24 -42 -1 -10 -21 -6 0
-9 -17 -24 -42 -1 -14 -21 -2 0
-9 -17 -24 -42 -2 -10 -14 -6 0
-9 -17 -24 -44 -1 -10 -22 -7 0
-9 -17 -24 -44 -1 -15 -22 -2 0
-9 -17 -24 -44 -2 -10 -15 -7 0
-9 -17 -24 -45 -1 -10 -23 -8 0
-9 -17 -24 -45 -1 -16 -23 -2 0
-9 -17 -24 -45 -2 -10 -16 -8 0
-9 -17 -30 -35 -1 -11 -25 -4 0
-9 -17 -30 -35 -1 -12 -25 -3 0
-9 -17 -30 -35 -3 -11 -12 -4 0
-9 -17 -30 -39 -1 -11 -26 -5 0
-9 -17 -30 -39 -1 -13 -26 -3 0
-9 -17 -30 -39 -3 -11 -13 -5 0
-9 -17 -30 -42 -1 -11 -27 -6 0
-9 -17 -30 -42 -1 -14 -27 -3 0
-9 -17 -30 -42 -3 -11 -14 -6 0
-9 -17 -30 -44 -1 -11 -28 -7 0
-9 -17 -30 -44 -1 -15 -28 -3 0
-9 -17 -30 -44 -3 -11 -15 -7 0
-9 -17 -30 -45 -1 -11 -29 -8 0
-9 -17 -30 -45 -1 -16 -29 -3 0
-9 -17 -30 -45 -3 -11 -16 -8 0
-9 -17 -35 -39 -1 -12 -31 -5 0
-9 -17 -35 -39 -1 -13 -31 -4 0
-9 -17 -35 -39 -4 -12 -13 -5 0
-9 -17 -35 -42 -1 -12 -32 -6 0
-9 -17 -35 -42 -1 -14 -32 -4 0
-9 -17 -35 -42 -4 -12 -14 -6 0
-9 -17 -35 -44 -1 -12 -33 -7 0
-9 -17 -35 -44 -1 -15 -33 -4 0
-9 -17 -35 -44 -4 -12 -15 -7 0
-9 -17 -35 -45 -1 -12 -34 -8 0
-9 -17 -35 -45 -1 -16 -34 -4 0
-9 -17 -35 -45 -4 -12 -16 -8 0
-9 -17 -39 -42 -1 -13 -36 -6 0
-9 -17 -39 -42 -1 -14 -36 -5 0
-9 -17 -39 -42 -5 -13 -14 -6 0
-9 -17 -39 -44 -1 -13 -37 -7 0
-9 -17 -39 -44 -1 -15 -37 -5 0
-9 -17 -39 -44 -5 -13 -15 -7 0
-9 -17 -39 -45 -1 -13 -38 -8 0
-9 -17 -39 -45 -1 -16 -38 -5 0
-9 -17 -39 -45 -5 -13 -16 -8 0
-9 -17 -42 -44 -1 -14 -40 -7 0
-9 -17 -42 -44 -1 -15 -40 -6 0
-9 -17 -42 -44 -6 -14 -15 -7 0
-9 -17 -42 -45 -1 -14 -41 -8 0
-9 -17 -42 -45 -1 -16 -41 -6 0
-9 -17 -42 -45 -6 -14 -16 -8 0
-9 -17 -44 -45 -1 -15 -43 -8 0
-9 -17 -44 -45 -1 -16 -43 -7 0
-9 -17 -44 -45 -7 -15 -16 -8 0
-9 -24 -30 -35 -2 -18 -25 -4 0
-9 -24 -30 -35 -2 -19 -25 -3 0
-9 -24 -30 -35 -3 -18 -19 -4 0
-9 -24 -30 -39 -2 -18 -26 -5 0
-9 -24 -30 -39 -2 -20 -26 -3 0
-9 -24 -30 -39 -3 -18 -20 -5 0
-9 -24 -30 -42 -2 -18 -27 -6 0
-9 -24 -30 -42 -2 -21 -27 -3 0
-9 -24 -30 -42 -3 -18 -21 -6 0
-9 -24 -30 -44 -2 -18 -28 -7 0
-9 -24 -30 -44 -2 -22 -28 -3 0
-9 -24 -30 -44 -3 -18 -22 -7 0
-9 -24 -30 -45 -2 -18 -29 -8 0
-9 -24 -30 -45 -2 -23 -29 -3 0
-9 -24 -30 -45 -3 -18 -23 -8 0
-9 -24 -35 -39 -2 -19 -31 -5 0
-9 -24 -35 -39 -2 -20 -31 -4 0
-9 -24 -35 -39 -4 -19 -20 -5 0
-9 -24 -35 -42 -2 -19 -32 -6 0
-9 -24 -35 -42 -2 -21 -32 -4 0
-9 -24 -35 -42 -4 -19 -21 -6 0
-9 -24 -35 -44 -2 -19 -33 -7 0
-9 -24 -35 -44 -2 -22 -33 -4 0
-9 -24 -35 -44 -4 -19 -22 -7 0
-9 -24 -35 -45 -2 -19 -34 -8 0
-9 -24 -35 -45 -2 -23 -34 -4 0
-9 -24 -35 -45 -4 -19 -23 -8 0
-9 -24 -39 -42 -2 -20 -36 -6 0
-9 -24 -39 -42 -2 -21 -36 -5 0
-9 -24 -39 -42 -5 -20 -21 -6 0
-9 -24 -39 -44 -2 -20 -37 -7 0
-9 -24 -39 -44 -2 -22 -37 -5 0
-9 -24 -39 -44 -5 -20 -22 -7 0
-9 -24 -39 -45 -2 -20 -38 -8 0
-9 -24 -39 -45 -2 -23 -38 -5 0
-9 -24 -39 -45 -5 -20 -23 -8 0
-9 -24 -42 -44 -2 -21 -40 -7 0
-9 -24 -42 -44 -2 -22 -40 -6 0
-9 -24 -42 -44 -6 -21 -22 -7 0
-9 -24 -42 -45 -2 -21 -41 -8 0
-9 -24 -42 -45 -2 -23 -41 -6 0
-9 -24 -42 -45 -6 -21 -23 -8 0
-9 -24 -44 -45 -2 -22 -43 -8 0
-9 -24 -44 -45 -2 -23 -43 -7 0
-9 -24 -44 -45 -7 -22 -23 -8 0
-9 -30 -35 -39 -3 -25 -31 -5 0
-9 -30 -35 -39 -3 -26 -31 -4 0
-9 -30 -35 -39 -4 -25 -26 -5 0
-9 -30 -35 -42 -3 -25 -32 -6 0
-9 -30 -35 -42 -3 -27 -32 -4 0
-9 -30 -35 -42 -4 -25 -27 -6 0
-9 -30 -35 -44 -3 -25 -33 -7 0
-9 -30 -35 -44 -3 -28 -33 -4 0
-9 -30 -35 -44 -4 -25 -28 -7 0
-9 -30 -35 -45 -3 -25 -34 -8 0
-9 -30 -35 -45 -3 -29 -34 -4 0
-9 -30 -35 -45 -4 -25 -29 -8 0
-9 -30 -39 -42 -3 -26 -36 -6 0
-9 -30 -39 -42 -3 -27 -36 -5 0
-9 -30 -39 -42 -5 -26 -27 -6 0
-9 -30 -39 -44 -3 -26 -37 -7 0
-9 -30 -39 -44 -3 -28 -37 -5 0
-9 -30 -39 -44 -5 -26 -28 -7 0
-9 -30 -39 -45 -3 -26 -38 -8 0
-9 -30 -39 -45 -3 -29 -38 -5 0
-9 -30 -39 -45 -5 -26 -29 -8 0
-9 -30 -42 -44 -3 -27 -40 -7 0
-9 -30 -42 -44 -3 -28 -40 -6 0
-9 -30 -42 -44 -6 -27 -28 -7 0
-9 -30 -42 -45 -3 -27 -41 -8 0
-9 -30 -42 -45 -3 -29 -41 -6 0
-9 -30 -42 -45 -6 -27 -29 -8 0
-9 -30 -44 -45 -3 -28 -43 -8 0
-9 -30 -44 -45 -3 -29 -43 -7 0
-9 -30 -44 -45 -7 -28 -29 -8 0
-9 -35 -39 -42 -4 -31 -36 -6 0
-9 -35 -39 -42 -4 -32 -36 -5 0
-9 -35 -39 -42 -5 -31 -32 -6 0
-9 -35 -39 -44 -4 -31 -37 -7 0
-9 -35 -39 -44 -4 -33 -37 -5 0
-9 -35 -39 -44 -5 -31 -33 -7 0
-9 -35 -39 -45 -4 -31 -38 -8 0
-9 -35 -39 -45 -4 -34 -38 -5 0
-9 -35 -39 -45 -5 -31 -34 -8 0
-9 -35 -42 -44 -4 -32 -40 -7 0
-9 -35 -42 -44 -4 -33 -40 -6 0
-9 -35 -42 -44 -6 -32 -33 -7 0
-9 -35 -42 -45 -4 -32 -41 -8 0
-9 -35 -42 -45 -4 -34 -41 -6 0
-9 -35 -42 -45 -6 -32 -34 -8 0
-9 -35 -44 -45 -4 -33 -43 -8 0
-9 -35 -44 -45 -4 -34 -43 -7 0
-9 -35 -44 -45 -7 -33 -34 -8 0
-9 -39 -42 -44 -5 -36 -40 -7 0
-9 -39 -42 -44 -5 -37 -40 -6 0
-9 -39 -42 -44 -6 -36 -37 -7 0
-9 -39 -42 -45 -5 -36 -41 -8 0
-9 -39 -42 -45 -5 -38 -41 -6 0
-9 -39 -42 -45 -6 -36 -38 -8 0
-9 -39 -44 -45 -5 -37 -43 -8 0
-9 -39 -44 -45 -5 -38 -43 -7 0
-9 -39 -44 -45 -7 -37 -38 -8 0
-9 -42 -44 -45 -6 -40 -43 -8 0
-9 -42 -44 -45 -6 -41 -43 -7 0
-9 -42 -44 -45 -7 -40 -41 -8 0
-17 -24 -30 -35 -10 -18 -25 -12 0
-17 -24 -30 -35 -10 -19 -25 -11 0
-17 -24 -30 -35 -11 -18 -19 -12 0
-17 -24 -30 -39 -10 -18 -26 -13 0
-17 -24 -30 -39 -10 -20 -26 -11 0
-17 -24 -30 -39 -11 -18 -20 -13 0
-17 -24 -30 -42 -10 -18 -27 -14 0
-17 -24 -30 -42 -10 -21 -27 -11 0
-17 -24 -30 -42 -11 -18 -21 -14 0
-17 -24 -30 -44 -10 -18 -28 -15 0
-17 -24 -30 -44 -10 -22 -28 -11 0
-17 -24 -30 -44 -11 -18 -22 -15 0
-17 -24 -30 -45 -10 -18 -29 -16 0
-17 -24 -30 -45 -10 -23 -29 -11 0
-17 -24 -30 -45 -11 -18 -23 -16 0
-17 -24 -35 -39 -10 -19 -31 -13 0
-17 -24 -35 -39 -10 -20 -31 -12 0
-17 -24 -35 -39 -12 -19 -20 -13 0
-17 -24 -35 -42 -10 -19 -32 -14 0
-17 -24 -35 -42 -10 -21 -32 -12 0
-17 -24 -35 -42 -12 -19 -21 -14 0
-17 -24 -35 -44 -10 -19 -33 -15 0
-17 -24 -35 -44 -10 -22 -33 -12 0
-17 -24 -35 -44 -12 -19 -22 -15 0
-17 -24 -35 -45 -10 -19 -34 -16 0
-17 -24 -35 -45 -10 -23 -34 -12 0
-17 -24 -35 -45 -12 -19 -23 -16 0
-17 -24 -39 -42 -10 -20 -36 -14 0
-17 -24 -39 -42 -10 -21 -36 -13 0
-17 -24 -39 -42 -13 -20 -21 -14 0
-17 -24 -39 -44 -10 -20 -37 -15 0
-17 -24 -39 -44 -10 -22 -37 -13 0
-17 -24 -39 -44 -13 -20 -22 -15 0
-17 -24 -39 -45 -10 -20 -38 -16 0
-17 -24 -39 -45 -10 -23 -38 -13 0
-17 -24 -39 -45 -13 -20 -23 -16 0
-17 -24 -42 -44 -10 -21 -40 -15 0
-17 -24 -42 -44 -10 -22 -40 -14 0
-17 -24 -42 -44 -14 -21 -22 -15 0
-17 -24 -42 -45 -10 -21 -41 -16 0
-17 -24 -42 -45 -10 -23 -41 -14 0
-17 -24 -42 -45 -14 -21 -23 -16 0
-17 -24 -44 -45 -10 -22 -43 -16 0
-17 -24 -44 -45 -10 -23 -43 -15 0
-17 -24 -44 -45 -15 -22 -23 -16 0
-17 -30 -35 -39 -11 -25 -31 -13 0
-17 -30 -35 -39 -11 -26 -31 -12 0
-17 -30 -35 -39 -12 -25 -26 -13 0
-17 -30 -35 -42 -11 -25 -32 -14 0
-17 -30 -35 -42 -11 -27 -32 -12 0
-17 -30 -35 -42 -12 -25 -27 -14 0
-17 -30 -35 -44 -11 -25 -33 -15 0
-17 -30 -35 -44 -11 -28 -33 -12 0
-17 -30 -35 -44 -12 -25 -28 -15 0
-17 -30 -35 -45 -11 -25 -34 -16 0
-17 -30 -35 -45 -11 -29 -34 -12 0
-17 -30 -35 -45 -12 -25 -29 -16 0
-17 -30 -39 -42 -11 -26 -36 -14 0
-17 -30 -39 -42 -11 -27 -36 -13 0
-17 -30 -39 -42 -13 -26 -27 -14 0
-17 -30 -39 -44 -11 -26 -37 -15 0
-17 -30 -39 -44 -11 -28 -37 -13 0
-17 -30 -39 -44 -13 -26 -28 -15 0
-17 -30 -39 -45 -11 -26 -38 -16 0
-17 -30 -39 -45 -11 -29 -38 -13 0
-17 -30 -39 -45 -13 -26 -29 -16 0
-17 -30 -42 -44 -11 -27 -40 -15 0
-17 -30 -42 -44 -11 -28 -40 -14 0
-17 -30 -42 -44 -14 -27 -28 -15 0
-17 -30 -42 -45 -11 -27 -41 -16 0
-17 -30 -42 -45 -11 -29 -41 -14 0
-17 -30 -42 -45 -14 -27 -29 -16 0
-17 -30 -44 -45 -11 -28 -43 -16 0
-17 -30 -44 -45 -11 -29 -43 -15 0
-17 -30 -44 -45 -15 -28 -29 -16 0
-17 -35 -39 -42 -12 -31 -36 -14 0
-17 -35 -39 -42 -12 -32 -36 -13 0
-17 -35 -39 -42 -13 -31 -32 -14 0
-17 -35 -39 -44 -12 -31 -37 -15 0
-17 -35 -39 -44 -12 -33 -37 -13 0
-17 -35 -39 -44 -13 -31 -33 -15 0
-17 -35 -39 -45 -12 -31 -38 -16 0
-17 -35 -39 -45 -12 -34 -38 -13 0
-17 -35 -39 -45 -13 -31 -34 -16 0
-17 -35 -42 -44 -12 -32 -40 -15 0
-17 -35 -42 -44 -12 -33 -40 -14 0
-17 -35 -42 -44 -14 -32 -33 -15 0
-17 -35 -42 -45 -12 -32 -41 -16 0
-17 -35 -42 -45 -12 -34 -41 -14 0
-17 -35 -42 -45 -14 -32 -34 -16 0
-17 -35 -44 -45 -12 -33 -43 -16 0
-17 -35 -44 -45 -12 -34 -43 -15 0
-17 -35 -44 -45 -15 -33 -34 -16 0
-17 -39 -42 -44 -13 -36 -40 -15 0
-17 -39 -42 -44 -13 -37 -40 -14 0
-17 -39 -42 -44 -14 -36 -37 -15 0
-17 -39 -42 -45 -13 -36 -41 -16 0
-17 -39 -42 -45 -13 -38 -41 -14 0
-17 -39 -42 -45 -14 -36 -38 -16 0
-17 -39 -44 -45 -13 -37 -43 -16 0
-17 -39 -44 -45 -13 -38 -43 -15 0
-17 -39 -44 -45 -15 -37 -38 -16 0
-17 -42 -44 -45 -14 -40 -43 -16 0
-17 -42 -44 -45 -14 -41 -43 -15 0
-17 -42 -44 -45 -15 -40 -41 -16 0
-24 -30 -35 -39 -18 -25 -31 -20 0
-24 -30 -35 -39 -18 -26 -31 -19 0
-24 -30 -35 -39 -19 -25 -26 -20 0
-24 -30 -35 -42 -18 -25 -32 -21 0
-24 -30 -35 -42 -18 -27 -32 -19 0
-24 -30 -35 -42 -19 -25 -27 -21 0
-24 -30 -35 -44 -18 -25 -33 -22 0
-24 -30 -35 -44 -18 -28 -33 -19 0
-24 -30 -35 -44 -19 -25 -28 -22 0
-24 -30 -35 -45 -18 -25 -34 -23 0
-24 -30 -35 -45 -18 -29 -34 -19 0
-24 -30 -35 -45 -19 -25 -29 -23 0
-24 -30 -39 -42 -18 -26 -36 -21 0
-24 -30 -39 -42 -18 -27 -36 -20 0
-24 -30 -39 -42 -20 -26 -27 -21 0
-24 -30 -39 -44 -18 -26 -37 -22 0
-24 -30 -39 -44 -18 -28 -37 -20 0
-24 -30 -39 -44 -20 -26 -28 -22 0
-24 -30 -39 -45 -18 -26 -38 -23 0
-24 -30 -39 -45 -18 -29 -38 -20 0
-24 -30 -39 -45 -20 -26 -29 -23 0
-24 -30 -42 -44 -18 -27 -40 -22 0
-24 -30 -42 -44 -18 -28 -40 -21 0
-24 -30 -42 -44 -21 -27 -28 -22 0
-24 -30 -42 -45 -18 -27 -41 -23 0
-24 -30 -42 -45 -18 -29 -41 -21 0
-24 -30 -42 -45 -21 -27 -29 -23 0
-24 -30 -44 -45 -18 -28 -43 -23 0
-24 -30 -44 -45 -18 -29 -43 -22 0
-24 -30 -44 -45 -22 -28 -29 -23 0
-24 -35 -39 -42 -19 -31 -36 -21 0
-24 -35 -39 -42 -19 -32 -36 -20 0
-24 -35 -39 -42 -20 -31 -32 -21 0
-24 -35 -39 -44 -19 -31 -37 -22 0
-24 -35 -39 -44 -19 -33 -37 -20 0
-24 -35 -39 -44 -20 -31 -33 -22 0
-24 -35 -39 -45 -19 -31 -38 -23 0
-24 -35 -39 -45 -19 -34 -38 -20 0
-24 -35 -39 -45 -20 -31 -34 -23 0
-24 -35 -42 -44 -19 -32 -40 -22 0
-24 -35 -42 -44 -19 -33 -40 -21 0
-24 -35 -42 -44 -21 -32 -33 -22 0
-24 -35 -42 -45 -19 -32 -41 -23 0
-24 -35 -42 -45 -19 -34 -41 -21 0
-24 -35 -42 -45 -21 -32 -34 -23 0
-24 -35 -44 -45 -19 -33 -43 -23 0
-24 -35 -44 -45 -19 -34 -43 -22 0
-24 -35 -44 -45 -22 -33 -34 -23 0
-24 -39 -42 -44 -20 -36 -40 -22 0
-24 -39 -42 -44 -20 -37 -40 -21 0
-24 -39 -42 -44 -21 -36 -37 -22 0
-24 -39 -42 -45 -20 -36 -41 -23 0
-24 -39 -42 -45 -20 -38 -41 -21 0
-24 -39 -42 -45 -21 -36 -38 -23 0
-24 -39 -44 -45 -20 -37 -43 -23 0
-24 -39 -44 -45 -20 -38 -43 -22 0
-24 -39 -44 -45 -22 -37 -38 -23 0
-24 -42 -44 -45 -21 -40 -43 -23 0
-24 -42 -44 -45 -21 -41 -43 -22 0
-24 -42 -44 -45 -22 -40 -41 -23 0
-30 -35 -39 -42 -25 -31 -36 -27 0
-30 -35 -39 -42 -25 -32 -36 -26 0
-30 -35 -39 -42 -26 -31 -32 -27 0
-30 -35 -39 -44 -25 -31 -37 -28 0
-30 -35 -39 -44 -25 -33 -37 -26 0
-30 -35 -39 -44 -26 -31 -33 -28 0
-30 -35 -39 -45 -25 -31 -38 -29 0
-30 -35 -39 -45 -25 -34 -38 -26 0
-30 -35 -39 -45 -26 -31 -34 -29 0
-30 -35 -42 -44 -25 -32 -40 -28 0
-30 -35 -42 -44 -25 -33 -40 -27 0
-30 -35 -42 -44 -27 -32 -33 -28 0
-30 -35 -42 -45 -25 -32 -41 -29 0
-30 -35 -42 -45 -25 -34 -41 -27 0
-30 -35 -42 -45 -27 -32 -34 -29 0
-30 -35 -44 -45 -25 -33 -43 -29 0
-30 -35 -44 -45 -25 -34 -43 -28 0
-30 -35 -44 -45 -28 -33 -34 -29 0
-30 -39 -42 -44 -26 -36 -40 -28 0
-30 -39 -42 -44 -26 -37 -40 -27 0
-30 -39 -42 -44 -27 -36 -37 -28 0
-30 -39 -42 -45 -26 -36 -41 -29 0
-30 -39 -42 -45 -26 -38 -41 -27 0
-30 -39 -42 -45 -27 -36 -38 -29 0
-30 -39 -44 -45 -26 -37 -43 -29 0
-30 -39 -44 -45 -26 -38 -43 -28 0
-30 -39 -44 -45 -28 -37 -38 -29 0
-30 -42 -44 -45 -27 -40 -43 -29 0
-30 -42 -44 -45 -27 -41 -43 -28 0
-30 -42 -44 -45 -28 -40 -41 -29 0
-35 -39 -42 -44 -31 -36 -40 -33 0
-35 -39 -42 -44 -31 -37 -40 -32 0
-35 -39 -42 -44 -32 -36 -37 -33 0
-35 -39 -42 -45 -31 -36 -41 -34 0
-35 -39 -42 -45 -31 -38 -41 -32 0
-35 -39 -42 -45 -32 -36 -38 -34 0
-35 -39 -44 -45 -31 -37 -43 -34 0
-35 -39 -44 -45 -31 -38 -43 -33 0
-35 -39 -44 -45 -33 -37 -38 -34 0
-35 -42 -44 -45 -32 -40 -43 -34 0
-35 -42 -44 -45 -32 -41 -43 -33 0
-35 -42 -44 -45 -33 -40 -41 -34 0
-39 -42 -44 -45 -36 -40 -43 -38 0
-39 -42 -44 -45 -36 -41 -43 -37 0
-39 -42 -44 -45 -37 -40 -41 -38 0
1 2 3 4 5 6 7 0
1 2 3 4 5 6 8 0
1 2 3 4 5 6 9 0
1 2 3 4 5 7 8 0
1 2 3 4 5 7 9 0
1 2 3 4 5 8 9 0
1 2 3 4 6 7 8 0
1 2 3 4 6 7 9 0
1 2 3 4 6 8 9 0
1 2 3 4 7 8 9 0
1 2 3 5 6 7 8 0
1 2 3 5 6 7 9 0
1 2 3 5 6 8 9 0
1 2 3 5 7 8 9 0
1 2 3 6 7 8 9 0
1 2 4 5 6 7 8 0
1 2 4 5 6 7 9 0
1 2 4 5 6 8 9 0
1 2 4 5 7 8 9 0
1 2 4 6 7 8 9 0
1 2 5 6 7 8 9 0
1 3 4 5 6 7 8 0
1 3 4 5 6 7 9 0
1 3 4 5 6 8 9 0
1 3 4 5 7 8 9 0
1 3 4 6 7 8 9 0
1 3 5 6 7 8 9 0
1 4 5 6 7 8 9 0
2 3 4 5 6 7 8 0
2 3 4 5 6 7 9 0
2 3 4 5 6 8 9 0
2 3 4 5 7 8 9 0
2 3 4 6 7 8 9 0
2 3 5 6 7 8 9 0
2 4 5 6 7 8 9 0
3 4 5 6 7 8 9 0
1 10 11 12 13 14 15 0
1 10 11 12 13 14 16 0
1 10 11 12 13 14 17 0
1 10 11 12 13 15 16 0
1 10 11 12 13 15 17 0
1 10 11 12 13 16 17 0
1 10 11 12 14 15 16 0
1 10 11 12 14 15 17 0
1 10 11 12 14 16 17 0
1 10 11 12 15 16 17 0
1 10 11 13 14 15 16 0
1 10 11 13 14 15 17 0
1 10 11 13 14 16 17 0
1 10 11 13 15 16 17 0
1 10 11 14 15 16 17 0
1 10 12 13 14 15 16 0
1 10 12 13 14 15 17 0
1 10 12 13 14 16 17 0
1 10 12 13 15 16 17 0
1 10 12 14 15 16 17 0
1 10 13 14 15 16 17 0
1 11 12 13 14 15 16 0
1 11 12 13 14 15 17 0
1 11 12 13 14 16 17 0
1 11 12 13 15 16 17 0
1 11 12 14 15 16 17 0
1 11 13 14 15 16 17 0
1 12 13 14 15 16 17 0
10 11 12 13 14 15 16 0
10 11 12 13 14 15 17 0
10 11 12 13 14 16 17 0
10 11 12 13 15 16 17 0
10 11 12 14 15 16 17 0
10 11 13 14 15 16 17 0
10 12 13 14 15 16 17 0
11 12 13 14 15 16 17 0
2 10 18 19 20 21 22 0
2 10 18 19 20 21 23 0
2 10 18 19 20 21 24 0
2 10 18 19 20 22 23 0
2 10 18 19 20 22 24 0
2 10 18 19 20 23 24 0
2 10 18 19 21 22 23 0
2 10 18 19 21 22 24 0
2 10 18 19 21 23 24 0
2 10 18 19 22 23 24 0
2 10 18 20 21 22 23 0
2 10 18 20 21 22 24 0
2 10 18 20 21 23 24 0
2 10 18 20 22 23 24 0
2 10 18 21 22 23 24 0
2 10 19 20 21 22 23 0
2 10 19 20 21 22 24 0
2 10 19 20 21 23 24 0
2 10 19 20 22 23 24 0
2 10 19 21 22 23 24 0
2 10 20 21 22 23 24 0
2 18 19 20 21 22 23 0
2 18 19 20 21 22 24 0
2 18 19 20 21 23 24 0
2 18 19 20 22 23 24 0
2 18 19 21 22 23 24 0
2 18 20 21 22 23 24 0
2 19 20 21 22 23 24 0
10 18 19 20 21 22 23 0
10 18 19 20 21 22 24 0
10 18 19 20 21 23 24 0
10 18 19 20 22 23 24 0
10 18 19 21 22 23 24 0
10 18 20 21 22 23 24 0
10 19 20 21 22 23 24 0
18 19 20 21 22 23 24 0
3 11 18 25 26 27 28 0
3 11 18 25 26 27 29 0
3 11 18 25 26 27 30 0
3 11 18 25 26 28 29 0
3 11 18 25 26 28 30 0
3 11 18 25 26 29 30 0
3 11 18 25 27 28 29 0
3 11 18 25 27 28 30 0
3 11 18 25 27 29 30 0
3 11 18 25 28 29 30 0
3 11 18 26 27 28 29 0
3 11 18 26 27 28 30 0
3 11 18 26 27 29 30 0
3 11 18 26 28 29 30 0
3 11 18 27 28 29 30 0
3 11 25 26 27 28 29 0
3 11 25 26 27 28 30 0
3 11 25 26 27 29 30 0
3 11 25 26 28 29 30 0
3 11 25 27 28 29 30 0
3 11 26 27 28 29 30 0
3 18 25 26 27 28 29 0
3 18 25 26 27 28 30 0
3 18 25 26 27 29 30 0
3 18 25 26 28 29 30 0
3 18 25 27 28 29 30 0
3 18 26 27 28 29 30 0
3 25 26 27 28 29 30 0
11 18 25 26 27 28 29 0
11 18 25 26 27 28 30 0
11 18 25 26 27 29 30 0
11 18 25 26 28 29 30 0
11 18 25 27 28 29 30 0
11 18 26 27 28 29 30 0
11 25 26 27 28 29 30 0
18 25 26 27 28 29 30 0
4 12 19 25 31 32 33 0
4 12 19 25 31 32 34 0
4 12 19 25 31 32 35 0
4 12 19 25 31 33 34 0
4 12 19 25 31 33 35 0
4 12 19 25 31 34 35 0
4 12 19 25 32 33 34 0
4 12 19 25 32 33 35 0
4 12 19 25 32 34 35 0
4 12 19 25 33 34 35 0
4 12 19 31 32 33 34 0
4 12 19 31 32 33 35 0
4 12 19 31 32 34 35 0
4 12 19 31 33 34 35 0
4 12 19 32 33 34 35 0
4 12 25 31 32 33 34 0
4 12 25 31 32 33 35 0
4 12 25 31 32 34 35 0
4 12 25 31 33 34 35 0
4 12 25 32 33 34 35 0
4 12 31 32 33 34 35 0
4 19 25 31 32 33 34 0
4 19 25 31 32 33 35 0
4 19 25 31 32 34 35 0
4 19 25 31 33 34 35 0
4 19 25 32 33 34 35 0
4 19 31 32 33 34 35 0
4 25 31 32 33 34 35 0
12 19 25 31 32 33 34 0
12 19 25 31 32 33 35 0
12 19 25 31 32 34 35 0
12 19 25 31 33 34 35 0
12 19 25 32 33 34 35 0
12 19 31 32 33 34 35 0
12 25 31 32 33 34 35 0
19 25 31 32 33 34 35 0
5 13 20 26 31 36 37 0
5 13 20 26 31 36 38 0
5 13 20 26 31 36 39 0
5 13 20 26 31 37 38 0
5 13 20 26 31 37 39 0
5 13 20 26 31 38 39 0
5 13 20 26 36 37 38 0
5 13 20 26 36 37 39 0
5 13 20 26 36 38 39 0
5 13 20 26 37 38 39 0
5 13 20 31 36 37 38 0
5 13 20 31 36 37 39 0
5 13 20 31 36 38 39 0
5 13 20 31 37 38 39 0
5 13 20 36 37 38 39 0
5 13 26 31 36 37 38 0
5 13 26 31 36 37 39 0
5 13 26 31 36 38 39 0
5 13 26 31 37 38 39 0
5 13 26 36 37 38 39 0
5 13 31 36 37 38 39 0
5 20 26 31 36 37 38 0
5 20 26 31 36 37 39 0
5 20 26 31 36 38 39 0
5 20 26 31 37 38 39 0
5 20 26 36 37 38 39 0
5 20 31 36 37 38 39 0
5 26 31 36 37 38 39 0
13 20 26 31 36 37 38 0
13 20 26 31 36 37 39 0
13 20 26 31 36 38 39 0
13 20 26 31 37 38 39 0
13 20 26 36 37 38 39 0
13 20 31 36 37 38 39 0
13 26 31 36 37 38 39 0
20 26 31 36 37 38 39 0
6 14 21 27 32 36 40 0
6 14 21 27 32 36 41 0
6 14 21 27 32 36 42 0
6 14 21 27 32 40 41 0
6 14 21 27 32 40 42 0
6 14 21 27 32 41 42 0
6 14 21 27 36 40 41 0
6 14 21 27 36 40 42 0
6 14 21 27 36 41 42 0
6 14 21 27 40 41 42 0
6 14 21 32 36 40 41 0
6 14 21 32 36 40 42 0
6 14 21 32 36 41 42 0
6 14 21 32 40 41 42 0
6 14 21 36 40 41 42 0
6 14 27 32 36 40 41 0
6 14 27 32 36 40 42 0
6 14 27 32 36 41 42 0
6 14 27 32 40 41 42 0
6 14 27 36 40 41 42 0
6 14 32 36 40 41 42 0
6 21 27 32 36 40 41 0
6 21 27 32 36 40 42 0
6 21 27 32 36 41 42 0
6 21 27 32 40 41 42 0
6 21 27 36 40 41 42 0
6 21 32 36 40 41 42 0
6 27 32 36 40 41 42 0
14 21 27 32 36 40 41 0
14 21 27 32 36 40 42 0
14 21 27 32 36 41 42 0
14 21 27 32 40 41 42 0
14 21 27 36 40 41 42 0
14 21 32 36 40 41 42 0
14 27 32 36 40 41 42 0
21 27 32 36 40 41 42 0
7 15 22 28 33 37 40 0
7 15 22 28 33 37 43 0
7 15 22 28 33 37 44 0
7 15 22 28 33 40 43 0
7 15 22 28 33 40 44 0
7 15 22 28 33 43 44 0
7 15 22 28 37 40 43 0
7 15 22 28 37 40 44 0
7 15 22 28 37 43 44 0
7 15 22 28 40 43 44 0
7 15 22 33 37 40 43 0
7 15 22 33 37 40 44 0
7 15 22 33 37 43 44 0
7 15 22 33 40 43 44 0
7 15 22 37 40 43 44 0
7 15 28 33 37 40 43 0
7 15 28 33 37 40 44 0
7 15 28 33 37 43 44 0
7 15 28 33 40 43 44 0
7 15 28 37 40 43 44 0
7 15 33 37 40 43 44 0
7 22 28 33 37 40 43 0
7 22 28 33 37 40 44 0
7 22 28 33 37 43 44 0
7 22 28 33 40 43 44 0
7 22 28 37 40 43 44 0
7 22 33 37 40 43 44 0
7 28 33 37 40 43 44 0
15 22 28 33 37 40 43 0
15 22 28 33 37 40 44 0
15 22 28 33 37 43 44 0
15 22 28 33 40 43 44 0
15 22 28 37 40 43 44 0
15 22 33 37 40 43 44 0
15 28 33 37 40 43 44 0
22 28 33 37 40 43 44 0
8 16 23 29 34 38 41 0
8 16 23 29 34 38 43 0
8 16 23 29 34 38 45 0
8 16 23 29 34 41 43 0
8 16 23 29 34 41 45 0
8 16 23 29 34 43 45 0
8 16 23 29 38 41 43 0
8 16 23 29 38 41 45 0
8 16 23 29 38 43 45 0
8 16 23 29 41 43 45 0
8 16 23 34 38 41 43 0
8 16 23 34 38 41 45 0
8 16 23 34 38 43 45 0
8 16 23 34 41 43 45 0
8 16 23 38 41 43 45 0
8 16 29 34 38 41 43 0
8 16 29 34 38 41 45 0
8 16 29 34 38 43 45 0
8 16 29 34 41 43 45 0
8 16 29 38 41 43 45 0
8 16 34 38 41 43 45 0
8 23 29 34 38 41 43 0
8 23 29 34 38 41 45 0
8 23 29 34 38 43 45 0
8 23 29 34 41 43 45 0
8 23 29 38 41 43 45 0
8 23 34 38 41 43 45 0
8 29 34 38 41 43 45 0
16 23 29 34 38 41 43 0
16 23 29 34 38 41 45 0
16 23 29 34 38 43 45 0
16 23 29 34 41 43 45 0
16 23 29 38 41 43 45 0
16 23 34 38 41 43 45 0
16 29 34 38 41 43 45 0
23 29 34 38 41 43 45 0
9 17 24 30 35 39 42 0
9 17 24 30 35 39 44 0
9 17 24 30 35 39 45 0
9 17 24 30 35 42 44 0
9 17 24 30 35 42 45 0
9 17 24 30 35 44 45 0
9 17 24 30 39 42 44 0
9 17 24 30 39 42 45 0
9 17 24 30 39 44 45 0
9 17 24 30 42 44 45 0
9 17 24 35 39 42 44 0
9 17 24 35 39 42 45 0
9 17 24 35 39 44 45 0
9 17 24 35 42 44 45 0
9 17 24 39 42 44 45 0
9 17 30 35 39 42 44 0
9 17 30 35 39 42 45 0
9 17 30 35 39 44 45 0
9 17 30 35 42 44 45 0
9 17 30 39 42 44 45 0
9 17 35 39 42 44 45 0
9 24 30 35 39 42 44 0
9 24 30 35 39 42 45 0
9 24 30 35 39 44 45 0
9 24 30 35 42 44 45 0
9 24 30 39 42 44 45 0
9 24 35 39 42 44 45 0
9 30 35 39 42 44 45 0
17 24 30 35 39 42 44 0
17 24 30 35 39 42 45 0
17 24 30 35 39 44 45 0
17 24 30 35 42 44 45 0
17 24 30 39 42 44 45 0
17 24 35 39 42 44 45 0
17 30 35 39 42 44 45 0
24 30 35 39 42 44 45 0
1 46 0
-46 47 0
2 -46 48 0
-48 49 0
3 -48 50 0
-50 51 0
4 -50 52 0
-52 53 0
5 -52 54 0
-54 55 0
6 -54 56 0
-56 57 0
7 -56 58 0
-58 59 0
8 -58 60 0
-60 61 0
9 -60 62 0
-62 63 0
10 -62 64 0
-64 65 0
11 -64 66 0
-66 67 0
12 -66 68 0
-68 69 0
13 -68 70 0
-70 71 0
14 -70 72 0
-72 73 0
15 -72 74 0
-74 75 0
16 -74 76 0
-76 77 0
17 -76 78 0
-78 79 0
18 -78 80 0
-80 81 0
19 -80 82 0
-82 83 0
20 -82 84 0
-84 85 0
21 -84 86 0
-86 87 0
22 -86 88 0
-88 89 0
23 -88 90 0
-90 91 0
24 -90 92 0
-92 93 0
25 -92 94 0
-94 95 0
26 -94 96 0
-96 97 0
27 -96 98 0
-98 99 0
28 -98 100 0
-100 101 0
29 -100 0
2 47 0
-47 102 0
3 -47 49 0
-49 103 0
4 -49 51 0
-51 104 0
5 -51 53 0
-53 105 0
6 -53 55 0
-55 106 0
7 -55 57 0
-57 107 0
8 -57 59 0
-59 108 0
9 -59 61 0
-61 109 0
10 -61 63 0
-63 110 0
11 -63 65 0
-65 111 0
12 -65 67 0
-67 112 0
13 -67 69 0
-69 113 0
14 -69 71 0
-71 114 0
15 -71 73 0
-73 115 0
16 -73 75 0
-75 116 0
17 -75 77 0
-77 117 0
18 -77 79 0
-79 118 0
19 -79 81 0
-81 119 0
20 -81 83 0
-83 120 0
21 -83 85 0
-85 121 0
22 -85 87 0
-87 122 0
23 -87 89 0
-89 123 0
24 -89 91 0
-91 124 0
25 -91 93 0
-93 125 0
26 -93 95 0
-95 126 0
27 -95 97 0
-97 127 0
28 -97 99 0
-99 128 0
29 -99 101 0
-101 129 0
30 -101 0
3 102 0
-102 130 0
4 -102 103 0
-103 131 0
5 -103 104 0
-104 132 0
6 -104 105 0
-105 133 0
7 -105 106 0
-106 134 0
8 -106 107 0
-107 135 0
9 -107 108 0
-108 136 0
10 -108 109 0
-109 137 0
11 -109 110 0
-110 138 0
12 -110 111 0
-111 139 0
13 -111 112 0
-112 140 0
14 -112 113 0
-113 141 0
15 -113 114 0
-114 142 0
16 -114 115 0
-115 143 0
17 -115 116 0
-116 144 0
18 -116 117 0
-117 145 0
19 -117 118 0
-118 146 0
20 -118 119 0
-119 147 0
21 -119 120 0
-120 148 0
22 -120 121 0
-121 149 0
23 -121 122 0
-122 150 0
24 -122 123 0
-123 151 0
25 -123 124 0
-124 152 0
26 -124 125 0
-125 153 0
27 -125 126 0
-126 154 0
28 -126 127 0
-127 155 0
29 -127 128 0
-128 156 0
30 -128 129 0
-129 157 0
31 -129 0
4 130 0
-130 158 0
5 -130 131 0
-131 159 0
6 -131 132 0
-132 160 0
7 -132 133 0
-133 161 0
8 -133 134 0
-134 162 0
9 -134 135 0
-135 163 0
10 -135 136 0
-136 164 0
11 -136 137 0
-137 165 0
12 -137 138 0
-138 166 0
13 -138 139 0
-139 167 0
14 -139 140 0
-140 168 0
15 -140 141 0
-141 169 0
16 -141 142 0
-142 170 0
17 -142 143 0
-143 171 0
18 -143 144 0
-144 172 0
19 -144 145 0
-145 173 0
20 -145 146 0
-146 174 0
21 -146 147 0
-147 175 0
22 -147 148 0
-148 176 0
23 -148 149 0
-149 177 0
24 -149 150 0
-150 178 0
25 -150 151 0
-151 179 0
26 -151 152 0
-152 180 0
27 -152 153 0
-153 181 0
28 -153 154 0
-154 182 0
29 -154 155 0
-155 183 0
30 -155 156 0
-156 184 0
31 -156 157 0
-157 185 0
32 -157 0
5 158 0
-158 186 0
6 -158 159 0
-159 187 0
7 -159 160 0
-160 188 0
8 -160 161 0
-161 189 0
9 -161 162 0
-162 190 0
10 -162 163 0
-163 191 0
11 -163 164 0
-164 192 0
12 -164 165 0
-165 193 0
13 -165 166 0
-166 194 0
14 -166 167 0
-167 195 0
15 -167 168 0
-168 196 0
16 -168 169 0
-169 197 0
17 -169 170 0
-170 198 0
18 -170 171 0
-171 199 0
19 -171 172 0
-172 200 0
20 -172 173 0
-173 201 0
21 -173 174 0
-174 202 0
22 -174 175 0
-175 203 0
23 -175 176 0
-176 204 0
24 -176 177 0
-177 205 0
25 -177 178 0
-178 206 0
26 -178 179 0
-179 207 0
27 -179 180 0
-180 208 0
28 -180 181 0
-181 209 0
29 -181 182 0
-182 210 0
30 -182 183 0
-183 211 0
31 -183 184 0
-184 212 0
32 -184 185 0
-185 213 0
33 -185 0
6 186 0
-186 214 0
7 -186 187 0
-187 215 0
8 -187 188 0
-188 216 0
9 -188 189 0
-189 217 0
10 -189 190 0
-190 218 0
11 -190 191 0
-191 219 0
12 -191 192 0
-192 220 0
13 -192 193 0
-193 221 0
14 -193 194 0
-194 222 0
15 -194 195 0
-195 223 0
16 -195 196 0
-196 224 0
17 -196 197 0
-197 225 0
18 -197 198 0
-198 226 0
19 -198 199 0
-199 227 0
20 -199 200 0
-200 228 0
21 -200 201 0
-201 229 0
22 -201 202 0
-202 230 0
23 -202 203 0
-203 231 0
24 -203 204 0
-204 232 0
25 -204 205 0
-205 233 0
26 -205 206 0
-206 234 0
27 -206 207 0
-207 235 0
28 -207 208 0
-208 236 0
29 -208 209 0
-209 237 0
30 -209 210 0
-210 238 0
31 -210 211 0
-211 239 0
32 -211 212 0
-212 240 0
33 -212 213 0
-213 241 0
34 -213 0
7 214 0
-214 242 0
8 -214 215 0
-215 243 0
9 -215 216 0
-216 244 0
10 -216 217 0
-217 245 0
11 -217 218 0
-218 246 0
12 -218 219 0
-219 247 0
13 -219 220 0
-220 248 0
14 -220 221 0
-221 249 0
15 -221 222 0
-222 250 0
16 -222 223 0
-223 251 0
17 -223 224 0
-224 252 0
18 -224 225 0
-225 253 0
19 -225 226 0
-226 254 0
20 -226 227 0
-227 255 0
21 -227 228 0
-228 256 0
22 -228 229 0
-229 257 0
23 -229 230 0
-230 258 0
24 -230 231 0
-231 259 0
25 -231 232 0
-232 260 0
26 -232 233 0
-233 261 0
27 -233 234 0
-234 262 0
28 -234 235 0
-235 263 0
29 -235 236 0
-236 264 0
30 -236 237 0
-237 265 0
31 -237 238 0
-238 266 0
32 -238 239 0
-239 267 0
33 -239 240 0
-240 268 0
34 -240 241 0
-241 269 0
35 -241 0
8 242 0
-242 270 0
9 -242 243 0
-243 271 0
10 -243 244 0
-244 272 0
11 -244 245 0
-245 273 0
12 -245 246 0
-246 274 0
13 -246 247 0
-247 275 0
14 -247 248 0
-248 276 0
15 -248 249 0
-249 277 0
16 -249 250 0
-250 278 0
17 -250 251 0
-251 279 0
18 -251 252 0
-252 280 0
19 -252 253 0
-253 281 0
20 -253 254 0
-254 282 0
21 -254 255 0
-255 283 0
22 -255 256 0
-256 284 0
23 -256 257 0
-257 285 0
24 -257 258 0
-258 286 0
25 -258 259 0
-259 287 0
26 -259 260 0
-260 288 0
27 -260 261 0
-261 289 0
28 -261 262 0
-262 290 0
29 -262 263 0
-263 291 0
30 -263 264 0
-264 292 0
31 -264 265 0
-265 293 0
32 -265 266 0
-266 294 0
33 -266 267 0
-267 295 0
34 -267 268 0
-268 296 0
35 -268 269 0
-269 297 0
36 -269 0
9 270 0
-270 298 0
10 -270 271 0
-271 299 0
11 -271 272 0
-272 300 0
12 -272 273 0
-273 301 0
13 -273 274 0
-274 302 0
14 -274 275 0
-275 303 0
15 -275 276 0
-276 304 0
16 -276 277 0
-277 305 0
17 -277 278 0
-278 306 0
18 -278 279 0
-279 307 0
19 -279 280 0
-280 308 0
20 -280 281 0
-281 309 0
21 -281 282 0
-282 310 0
22 -282 283 0
-283 311 0
23 -283 284 0
-284 312 0
24 -284 285 0
-285 313 0
25 -285 286 0
-286 314 0
26 -286 287 0
-287 315 0
27 -287 288 0
-288 316 0
28 -288 289 0
-289 317 0
29 -289 290 0
-290 318 0
30 -290 291 0
-291 319 0
31 -291 292 0
-292 320 0
32 -292 293 0
-293 321 0
33 -293 294 0
-294 322 0
34 -294 295 0
-295 323 0
35 -295 296 0
-296 324 0
36 -296 297 0
-297 325 0
37 -297 0
10 298 0
-298 326 0
11 -298 299 0
-299 327 0
12 -299 300 0
-300 328 0
13 -300 301 0
-301 329 0
14 -301 302 0
-302 330 0
15 -302 303 0
-303 331 0
16 -303 304 0
-304 332 0
17 -304 305 0
-305 333 0
18 -305 306 0
-306 334 0
19 -306 307 0
-307 335 0
20 -307 308 0
-308 336 0
21 -308 309 0
-309 337 0
22 -309 310 0
-310 338 0
23 -310 311 0
-311 339 0
24 -311 312 0
-312 340 0
25 -312 313 0
-313 341 0
26 -313 314 0
-314 342 0
27 -314 315 0
-315 343 0
28 -315 316 0
-316 344 0
29 -316 317 0
-317 345 0
30 -317 318 0
-318 346 0
31 -318 319 0
-319 347 0
32 -319 320 0
-320 348 0
33 -320 321 0
-321 349 0
34 -321 322 0
-322 350 0
35 -322 323 0
-323 351 0
36 -323 324 0
-324 352 0
37 -324 325 0
-325 353 0
38 -325 0
11 326 0
-326 354 0
12 -326 327 0
-327 355 0
13 -327 328 0
-328 356 0
14 -328 329 0
-329 357 0
15 -329 330 0
-330 358 0
16 -330 331 0
-331 359 0
17 -331 332 0
-332 360 0
18 -332 333 0
-333 361 0
19 -333 334 0
-334 362 0
20 -334 335 0
-335 363 0
21 -335 336 0
-336 364 0
22 -336 337 0
-337 365 0
23 -337 338 0
-338 366 0
24 -338 339 0
-339 367 0
25 -339 340 0
-340 368 0
26 -340 341 0
-341 369 0
27 -341 342 0
-342 370 0
28 -342 343 0
-343 371 0
29 -343 344 0
-344 372 0
30 -344 345 0
-345 373 0
31 -345 346 0
-346 374 0
32 -346 347 0
-347 375 0
33 -347 348 0
-348 376 0
34 -348 349 0
-349 377 0
35 -349 350 0
-350 378 0
36 -350 351 0
-351 379 0
37 -351 352 0
-352 380 0
38 -352 353 0
-353 381 0
39 -353 0
12 354 0
-354 382 0
13 -354 355 0
-355 383 0
14 -355 356 0
-356 384 0
15 -356 357 0
-357 385 0
16 -357 358 0
-358 386 0
17 -358 359 0
-359 387 0
18 -359 360 0
-360 388 0
19 -360 361 0
-361 389 0
20 -361 362 0
-362 390 0
21 -362 363 0
-363 391 0
22 -363 364 0
-364 392 0
23 -364 365 0
-365 393 0
24 -365 366 0
-366 394 0
25 -366 367 0
-367 395 0
26 -367 368 0
-368 396 0
27 -368 369 0
-369 397 0
28 -369 370 0
-370 398 0
29 -370 371 0
-371 399 0
30 -371 372 0
-372 400 0
31 -372 373 0
-373 401 0
32 -373 374 0
-374 402 0
33 -374 375 0
-375 403 0
34 -375 376 0
-376 404 0
35 -376 377 0
-377 405 0
36 -377 378 0
-378 406 0
37 -378 379 0
-379 407 0
38 -379 380 0
-380 408 0
39 -380 381 0
-381 409 0
40 -381 0
13 382 0
-382 410 0
14 -382 383 0
-383 411 0
15 -383 384 0
-384 412 0
16 -384 385 0
-385 413 0
17 -385 386 0
-386 414 0
18 -386 387 0
-387 415 0
19 -387 388 0
-388 416 0
20 -388 389 0
-389 417 0
21 -389 390 0
-390 418 0
22 -390 391 0
-391 419 0
23 -391 392 0
-392 420 0
24 -392 393 0
-393 421 0
25 -393 394 0
-394 422 0
26 -394 395 0
-395 423 0
27 -395 396 0
-396 424 0
28 -396 397 0
-397 425 0
29 -397 398 0
-398 426 0
30 -398 399 0
-399 427 0
31 -399 400 0
-400 428 0
32 -400 401 0
-401 429 0
33 -401 402 0
-402 430 0
34 -402 403 0
-403 431 0
35 -403 404 0
-404 432 0
36 -404 405 0
-405 433 0
37 -405 406 0
-406 434 0
38 -406 407 0
-407 435 0
39 -407 408 0
-408 436 0
40 -408 409 0
-409 437 0
41 -409 0
14 410 0
-410 438 0
15 -410 411 0
-411 439 0
16 -411 412 0
-412 440 0
17 -412 413 0
-413 441 0
18 -413 414 0
-414 442 0
19 -414 415 0
-415 443 0
20 -415 416 0
-416 444 0
21 -416 417 0
-417 445 0
22 -417 418 0
-418 446 0
23 -418 419 0
-419 447 0
24 -419 420 0
-420 448 0
25 -420 421 0
-421 449 0
26 -421 422 0
-422 450 0
27 -422 423 0
-423 451 0
28 -423 424 0
-424 452 0
29 -424 425 0
-425 453 0
30 -425 426 0
-426 454 0
31 -426 427 0
-427 455 0
32 -427 428 0
-428 456 0
33 -428 429 0
-429 457 0
34 -429 430 0
-430 458 0
35 -430 431 0
-431 459 0
36 -431 432 0
-432 460 0
37 -432 433 0
-433 461 0
38 -433 434 0
-434 462 0
39 -434 435 0
-435 463 0
40 -435 436 0
-436 464 0
41 -436 437 0
-437 465 0
42 -437 0
15 438 0
-438 466 0
16 -438 439 0
-439 467 0
17 -439 440 0
-440 468 0
18 -440 441 0
-441 469 0
19 -441 442 0
-442 470 0
20 -442 443 0
-443 471 0
21 -443 444 0
-444 472 0
22 -444 445 0
-445 473 0
23 -445 446 0
-446 474 0
24 -446 447 0
-447 475 0
25 -447 448 0
-448 476 0
26 -448 449 0
-449 477 0
27 -449 450 0
-450 478 0
28 -450 451 0
-451 479 0
29 -451 452 0
-452 480 0
30 -452 453 0
-453 481 0
31 -453 454 0
-454 482 0
32 -454 455 0
-455 483 0
33 -455 456 0
-456 484 0
34 -456 457 0
-457 485 0
35 -457 458 0
-458 486 0
36 -458 459 0
-459 487 0
37 -459 460 0
-460 488 0
38 -460 461 0
-461 489 0
39 -461 462 0
-462 490 0
40 -462 463 0
-463 491 0
41 -463 464 0
-464 492 0
42 -464 465 0
-465 493 0
43 -465 0
16 466 0
-466 494 0
17 -466 467 0
-467 495 0
18 -467 468 0
-468 496 0
19 -468 469 0
-469 497 0
20 -469 470 0
-470 498 0
21 -470 471 0
-471 499 0
22 -471 472 0
-472 500 0
23 -472 473 0
-473 501 0
24 -473 474 0
-474 502 0
25 -474 475 0
-475 503 0
26 -475 476 0
-476 504 0
27 -476 477 0
-477 505 0
28 -477 478 0
-478 506 0
29 -478 479 0
-479 507 0
30 -479 480 0
-480 508 0
31 -480 481 0
-481 509 0
32 -481 482 0
-482 510 0
33 -482 483 0
-483 511 0
34 -483 484 0
-484 512 0
35 -484 485 0
-485 513 0
36 -485 486 0
-486 514 0
37 -486 487 0
-487 515 0
38 -487 488 0
-488 516 0
39 -488 489 0
-489 517 0
40 -489 490 0
-490 518 0
41 -490 491 0
-491 519 0
42 -491 492 0
-492 520 0
43 -492 493 0
-493 521 0
44 -493 0
17 494 0
18 -494 495 0
19 -495 496 0
20 -496 497 0
21 -497 498 0
22 -498 499 0
23 -499 500 0
24 -500 501 0
25 -501 502 0
26 -502 503 0
27 -503 504 0
28 -504 505 0
29 -505 506 0
30 -506 507 0
31 -507 508 0
32 -508 509 0
33 -509 510 0
34 -510 511 0
35 -511 512 0
36 -512 513 0
37 -513 514 0
38 -514 515 0
39 -515 516 0
40 -516 517 0
41 -517 518 0
42 -518 519 0
43 -519 520 0
44 -520 521 0
45 -521 0
1 0
2 0
3 0
-4 0
-5 0
-6 0
-7 0
-8 0
-9 0
10 0
-11 0
18 0
