p cnf 31 5135
-1 -7 -8 -3 0
-1 -7 -9 -4 0
-1 -7 -10 -5 0
-1 -7 -11 -6 0
-1 -12 -13 -2 0
-1 -12 -14 -3 0
-1 -12 -15 -4 0
-1 -12 -16 -5 0
-1 -12 -17 -6 0
-1 -18 -19 -2 0
-1 -18 -20 -3 0
-1 -18 -21 -4 0
-1 -18 -22 -5 0
-1 -18 -23 -6 0
-1 -24 -27 -2 0
-1 -25 -28 -2 0
-1 -25 -30 -3 0
-1 -26 -29 -2 0
-1 -26 -31 -3 0
-2 -13 -14 -3 0
-2 -13 -15 -4 0
-2 -13 -16 -5 0
-2 -13 -17 -6 0
-2 -19 -20 -3 0
-2 -19 -21 -4 0
-2 -19 -22 -5 0
-2 -19 -23 -6 0
-2 -28 -30 -3 0
-2 -29 -31 -3 0
-3 -8 -9 -4 0
-3 -8 -10 -5 0
-3 -8 -11 -6 0
-3 -14 -15 -4 0
-3 -14 -16 -5 0
-3 -14 -17 -6 0
-3 -20 -21 -4 0
-3 -20 -22 -5 0
-3 -20 -23 -6 0
-4 -9 -10 -5 0
-4 -9 -11 -6 0
-4 -15 -16 -5 0
-4 -15 -17 -6 0
-4 -21 -22 -5 0
-4 -21 -23 -6 0
-4 -24 -25 -5 0
-4 -24 -26 -6 0
-4 -27 -28 -5 0
-4 -27 -29 -6 0
-5 -10 -11 -6 0
-5 -16 -17 -6 0
-5 -22 -23 -6 0
-5 -25 -26 -6 0
-5 -28 -29 -6 0
-5 -30 -31 -6 0
-7 -12 -14 -8 0
-7 -12 -15 -9 0
-7 -12 -16 -10 0
-7 -12 -17 -11 0
-7 -18 -20 -8 0
-7 -18 -21 -9 0
-7 -18 -22 -10 0
-7 -18 -23 -11 0
-7 -25 -30 -8 0
-7 -26 -31 -8 0
-8 -14 -15 -9 0
-8 -14 -16 -10 0
-8 -14 -17 -11 0
-8 -20 -21 -9 0
-8 -20 -22 -10 0
-8 -20 -23 -11 0
-9 -15 -16 -10 0
-9 -15 -17 -11 0
-9 -21 -22 -10 0
-9 -21 -23 -11 0
-9 -24 -25 -10 0
-9 -24 -26 -11 0
-9 -27 -28 -10 0
-9 -27 -29 -11 0
-10 -16 -17 -11 0
-10 -22 -23 -11 0
-10 -25 -26 -11 0
-10 -28 -29 -11 0
-10 -30 -31 -11 0
-12 -18 -19 -13 0
-12 -18 -20 -14 0
-12 -18 -21 -15 0
-12 -18 -22 -16 0
-12 -18 -23 -17 0
-12 -24 -27 -13 0
-12 -25 -28 -13 0
-12 -25 -30 -14 0
-12 -26 -29 -13 0
-12 -26 -31 -14 0
-13 -19 -20 -14 0
-13 -19 -21 -15 0
-13 -19 -22 -16 0
-13 -19 -23 -17 0
-13 -28 -30 -14 0
-13 -29 -31 -14 0
-14 -20 -21 -15 0
-14 -20 -22 -16 0
-14 -20 -23 -17 0
-15 -21 -22 -16 0
-15 -21 -23 -17 0
-15 -24 -25 -16 0
-15 -24 -26 -17 0
-15 -27 -28 -16 0
-15 -27 -29 -17 0
-16 -22 -23 -17 0
-16 -25 -26 -17 0
-16 -28 -29 -17 0
-16 -30 -31 -17 0
-18 -24 -27 -19 0
-18 -25 -28 -19 0
-18 -25 -30 -20 0
-18 -26 -29 -19 0
-18 -26 -31 -20 0
-19 -28 -30 -20 0
-19 -29 -31 -20 0
-21 -24 -25 -22 0
-21 -24 -26 -23 0
-21 -27 -28 -22 0
-21 -27 -29 -23 0
-22 -25 -26 -23 0
-22 -28 -29 -23 0
-22 -30 -31 -23 0
-24 -27 -28 -25 0
-24 -27 -29 -26 0
-25 -28 -29 -26 0
-25 -30 -31 -26 0
-28 -30 -31 -29 0
1 7 8 14 13 19 21 4 0
1 7 8 14 13 19 22 5 0
1 7 8 14 13 19 23 6 0
1 7 8 14 15 21 19 2 0
1 7 8 14 15 21 22 5 0
1 7 8 14 15 21 23 6 0
1 7 8 14 15 27 28 5 0
1 7 8 14 15 27 29 6 0
1 7 8 14 16 22 19 2 0
1 7 8 14 16 22 21 4 0
1 7 8 14 16 22 23 6 0
1 7 8 14 16 28 27 4 0
1 7 8 14 16 28 29 6 0
1 7 8 14 17 23 19 2 0
1 7 8 14 17 23 21 4 0
1 7 8 14 17 23 22 5 0
1 7 8 14 17 29 27 4 0
1 7 8 14 17 29 28 5 0
1 7 8 20 19 13 15 4 0
1 7 8 20 19 13 16 5 0
1 7 8 20 19 13 17 6 0
1 7 8 20 21 15 13 2 0
1 7 8 20 21 15 16 5 0
1 7 8 20 21 15 17 6 0
1 7 8 20 21 27 28 5 0
1 7 8 20 21 27 29 6 0
1 7 8 20 22 16 13 2 0
1 7 8 20 22 16 15 4 0
1 7 8 20 22 16 17 6 0
1 7 8 20 22 28 27 4 0
1 7 8 20 22 28 29 6 0
1 7 8 20 23 17 13 2 0
1 7 8 20 23 17 15 4 0
1 7 8 20 23 17 16 5 0
1 7 8 20 23 29 27 4 0
1 7 8 20 23 29 28 5 0
1 7 8 30 16 13 27 4 0
1 7 8 30 16 13 29 6 0
1 7 8 30 16 15 27 2 0
1 7 8 30 16 17 29 2 0
1 7 8 30 22 19 27 4 0
1 7 8 30 22 19 29 6 0
1 7 8 30 22 21 27 2 0
1 7 8 30 22 23 29 2 0
1 7 8 30 28 13 15 4 0
1 7 8 30 28 13 17 6 0
1 7 8 30 28 19 21 4 0
1 7 8 30 28 19 23 6 0
1 7 8 31 17 13 27 4 0
1 7 8 31 17 13 28 5 0
1 7 8 31 17 15 27 2 0
1 7 8 31 17 16 28 2 0
1 7 8 31 23 19 27 4 0
1 7 8 31 23 19 28 5 0
1 7 8 31 23 21 27 2 0
1 7 8 31 23 22 28 2 0
1 7 8 31 29 13 15 4 0
1 7 8 31 29 13 16 5 0
1 7 8 31 29 19 21 4 0
1 7 8 31 29 19 22 5 0
1 7 9 15 13 19 20 3 0
1 7 9 15 13 19 22 5 0
1 7 9 15 13 19 23 6 0
1 7 9 15 13 28 30 3 0
1 7 9 15 13 29 31 3 0
1 7 9 15 14 20 19 2 0
1 7 9 15 14 20 22 5 0
1 7 9 15 14 20 23 6 0
1 7 9 15 14 30 28 2 0
1 7 9 15 14 31 29 2 0
1 7 9 15 16 22 19 2 0
1 7 9 15 16 22 20 3 0
1 7 9 15 16 22 23 6 0
1 7 9 15 16 28 29 6 0
1 7 9 15 16 30 31 6 0
1 7 9 15 17 23 19 2 0
1 7 9 15 17 23 20 3 0
1 7 9 15 17 23 22 5 0
1 7 9 15 17 29 28 5 0
1 7 9 15 17 31 30 5 0
1 7 9 21 19 13 14 3 0
1 7 9 21 19 13 16 5 0
1 7 9 21 19 13 17 6 0
1 7 9 21 19 28 30 3 0
1 7 9 21 19 29 31 3 0
1 7 9 21 20 14 13 2 0
1 7 9 21 20 14 16 5 0
1 7 9 21 20 14 17 6 0
1 7 9 21 20 30 28 2 0
1 7 9 21 20 31 29 2 0
1 7 9 21 22 16 13 2 0
1 7 9 21 22 16 14 3 0
1 7 9 21 22 16 17 6 0
1 7 9 21 22 28 29 6 0
1 7 9 21 22 30 31 6 0
1 7 9 21 23 17 13 2 0
1 7 9 21 23 17 14 3 0
1 7 9 21 23 17 16 5 0
1 7 9 21 23 29 28 5 0
1 7 9 21 23 31 30 5 0
1 7 9 27 13 14 30 5 0
1 7 9 27 13 14 31 6 0
1 7 9 27 13 16 30 3 0
1 7 9 27 13 17 31 3 0
1 7 9 27 19 20 30 5 0
1 7 9 27 19 20 31 6 0
1 7 9 27 19 22 30 3 0
1 7 9 27 19 23 31 3 0
1 7 9 27 28 16 14 3 0
1 7 9 27 28 16 17 6 0
1 7 9 27 28 22 20 3 0
1 7 9 27 28 22 23 6 0
1 7 9 27 28 30 31 6 0
1 7 9 27 29 17 14 3 0
1 7 9 27 29 17 16 5 0
1 7 9 27 29 23 20 3 0
1 7 9 27 29 23 22 5 0
1 7 9 27 29 31 30 5 0
1 7 10 16 13 19 20 3 0
1 7 10 16 13 19 21 4 0
1 7 10 16 13 19 23 6 0
1 7 10 16 13 29 31 3 0
1 7 10 16 14 20 19 2 0
1 7 10 16 14 20 21 4 0
1 7 10 16 14 20 23 6 0
1 7 10 16 14 31 29 2 0
1 7 10 16 15 21 19 2 0
1 7 10 16 15 21 20 3 0
1 7 10 16 15 21 23 6 0
1 7 10 16 15 27 29 6 0
1 7 10 16 17 23 19 2 0
1 7 10 16 17 23 20 3 0
1 7 10 16 17 23 21 4 0
1 7 10 16 17 29 27 4 0
1 7 10 22 19 13 14 3 0
1 7 10 22 19 13 15 4 0
1 7 10 22 19 13 17 6 0
1 7 10 22 19 29 31 3 0
1 7 10 22 20 14 13 2 0
1 7 10 22 20 14 15 4 0
1 7 10 22 20 14 17 6 0
1 7 10 22 20 31 29 2 0
1 7 10 22 21 15 13 2 0
1 7 10 22 21 15 14 3 0
1 7 10 22 21 15 17 6 0
1 7 10 22 21 27 29 6 0
1 7 10 22 23 17 13 2 0
1 7 10 22 23 17 14 3 0
1 7 10 22 23 17 15 4 0
1 7 10 22 23 29 27 4 0
1 7 10 28 13 14 31 6 0
1 7 10 28 13 17 31 3 0
1 7 10 28 19 20 31 6 0
1 7 10 28 19 23 31 3 0
1 7 10 28 27 15 14 3 0
1 7 10 28 27 15 17 6 0
1 7 10 28 27 21 20 3 0
1 7 10 28 27 21 23 6 0
1 7 10 28 29 17 14 3 0
1 7 10 28 29 17 15 4 0
1 7 10 28 29 23 20 3 0
1 7 10 28 29 23 21 4 0
1 7 10 30 14 13 27 4 0
1 7 10 30 14 13 29 6 0
1 7 10 30 14 15 27 2 0
1 7 10 30 14 17 29 2 0
1 7 10 30 20 19 27 4 0
1 7 10 30 20 19 29 6 0
1 7 10 30 20 21 27 2 0
1 7 10 30 20 23 29 2 0
1 7 10 30 31 17 13 2 0
1 7 10 30 31 17 15 4 0
1 7 10 30 31 23 19 2 0
1 7 10 30 31 23 21 4 0
1 7 10 30 31 29 27 4 0
1 7 11 17 13 19 20 3 0
1 7 11 17 13 19 21 4 0
1 7 11 17 13 19 22 5 0
1 7 11 17 13 28 30 3 0
1 7 11 17 14 20 19 2 0
1 7 11 17 14 20 21 4 0
1 7 11 17 14 20 22 5 0
1 7 11 17 14 30 28 2 0
1 7 11 17 15 21 19 2 0
1 7 11 17 15 21 20 3 0
1 7 11 17 15 21 22 5 0
1 7 11 17 15 27 28 5 0
1 7 11 17 16 22 19 2 0
1 7 11 17 16 22 20 3 0
1 7 11 17 16 22 21 4 0
1 7 11 17 16 28 27 4 0
1 7 11 23 19 13 14 3 0
1 7 11 23 19 13 15 4 0
1 7 11 23 19 13 16 5 0
1 7 11 23 19 28 30 3 0
1 7 11 23 20 14 13 2 0
1 7 11 23 20 14 15 4 0
1 7 11 23 20 14 16 5 0
1 7 11 23 20 30 28 2 0
1 7 11 23 21 15 13 2 0
1 7 11 23 21 15 14 3 0
1 7 11 23 21 15 16 5 0
1 7 11 23 21 27 28 5 0
1 7 11 23 22 16 13 2 0
1 7 11 23 22 16 14 3 0
1 7 11 23 22 16 15 4 0
1 7 11 23 22 28 27 4 0
1 7 11 29 13 14 30 5 0
1 7 11 29 13 16 30 3 0
1 7 11 29 19 20 30 5 0
1 7 11 29 19 22 30 3 0
1 7 11 29 27 15 14 3 0
1 7 11 29 27 15 16 5 0
1 7 11 29 27 21 20 3 0
1 7 11 29 27 21 22 5 0
1 7 11 29 28 16 14 3 0
1 7 11 29 28 16 15 4 0
1 7 11 29 28 22 20 3 0
1 7 11 29 28 22 21 4 0
1 7 11 31 14 13 27 4 0
1 7 11 31 14 13 28 5 0
1 7 11 31 14 15 27 2 0
1 7 11 31 14 16 28 2 0
1 7 11 31 20 19 27 4 0
1 7 11 31 20 19 28 5 0
1 7 11 31 20 21 27 2 0
1 7 11 31 20 22 28 2 0
1 7 11 31 30 16 13 2 0
1 7 11 31 30 16 15 4 0
1 7 11 31 30 22 19 2 0
1 7 11 31 30 22 21 4 0
1 7 11 31 30 28 27 4 0
1 12 13 19 20 8 9 4 0
1 12 13 19 20 8 10 5 0
1 12 13 19 20 8 11 6 0
1 12 13 19 21 9 8 3 0
1 12 13 19 21 9 10 5 0
1 12 13 19 21 9 11 6 0
1 12 13 19 22 10 8 3 0
1 12 13 19 22 10 9 4 0
1 12 13 19 22 10 11 6 0
1 12 13 19 22 30 31 6 0
1 12 13 19 23 11 8 3 0
1 12 13 19 23 11 9 4 0
1 12 13 19 23 11 10 5 0
1 12 13 19 23 31 30 5 0
1 12 13 27 9 8 30 5 0
1 12 13 27 9 8 31 6 0
1 12 13 27 9 10 30 3 0
1 12 13 27 9 11 31 3 0
1 12 13 27 21 20 30 5 0
1 12 13 27 21 20 31 6 0
1 12 13 27 21 22 30 3 0
1 12 13 27 21 23 31 3 0
1 12 13 28 10 8 31 6 0
1 12 13 28 10 11 31 3 0
1 12 13 28 22 20 31 6 0
1 12 13 28 22 23 31 3 0
1 12 13 28 30 8 9 4 0
1 12 13 28 30 8 11 6 0
1 12 13 28 30 20 21 4 0
1 12 13 28 30 20 23 6 0
1 12 13 29 11 8 30 5 0
1 12 13 29 11 10 30 3 0
1 12 13 29 23 20 30 5 0
1 12 13 29 23 22 30 3 0
1 12 13 29 31 8 9 4 0
1 12 13 29 31 8 10 5 0
1 12 13 29 31 20 21 4 0
1 12 13 29 31 20 22 5 0
1 12 14 8 9 21 19 2 0
1 12 14 8 9 21 22 5 0
1 12 14 8 9 21 23 6 0
1 12 14 8 9 27 28 5 0
1 12 14 8 9 27 29 6 0
1 12 14 8 10 22 19 2 0
1 12 14 8 10 22 21 4 0
1 12 14 8 10 22 23 6 0
1 12 14 8 10 28 27 4 0
1 12 14 8 10 28 29 6 0
1 12 14 8 11 23 19 2 0
1 12 14 8 11 23 21 4 0
1 12 14 8 11 23 22 5 0
1 12 14 8 11 29 27 4 0
1 12 14 8 11 29 28 5 0
1 12 14 20 21 9 10 5 0
1 12 14 20 21 9 11 6 0
1 12 14 20 21 27 28 5 0
1 12 14 20 21 27 29 6 0
1 12 14 20 22 10 9 4 0
1 12 14 20 22 10 11 6 0
1 12 14 20 22 28 27 4 0
1 12 14 20 22 28 29 6 0
1 12 14 20 23 11 9 4 0
1 12 14 20 23 11 10 5 0
1 12 14 20 23 29 27 4 0
1 12 14 20 23 29 28 5 0
1 12 14 30 10 9 27 2 0
1 12 14 30 10 11 29 2 0
1 12 14 30 22 19 27 4 0
1 12 14 30 22 19 29 6 0
1 12 14 30 22 21 27 2 0
1 12 14 30 22 23 29 2 0
1 12 14 30 28 19 21 4 0
1 12 14 30 28 19 23 6 0
1 12 14 31 11 9 27 2 0
1 12 14 31 11 10 28 2 0
1 12 14 31 23 19 27 4 0
1 12 14 31 23 19 28 5 0
1 12 14 31 23 21 27 2 0
1 12 14 31 23 22 28 2 0
1 12 14 31 29 19 21 4 0
1 12 14 31 29 19 22 5 0
1 12 15 9 8 20 19 2 0
1 12 15 9 8 20 22 5 0
1 12 15 9 8 20 23 6 0
1 12 15 9 8 30 28 2 0
1 12 15 9 8 31 29 2 0
1 12 15 9 10 22 19 2 0
1 12 15 9 10 22 20 3 0
1 12 15 9 10 22 23 6 0
1 12 15 9 10 28 29 6 0
1 12 15 9 10 30 31 6 0
1 12 15 9 11 23 19 2 0
1 12 15 9 11 23 20 3 0
1 12 15 9 11 23 22 5 0
1 12 15 9 11 29 28 5 0
1 12 15 9 11 31 30 5 0
1 12 15 21 19 28 30 3 0
1 12 15 21 19 29 31 3 0
1 12 15 21 20 8 10 5 0
1 12 15 21 20 8 11 6 0
1 12 15 21 20 30 28 2 0
1 12 15 21 20 31 29 2 0
1 12 15 21 22 10 8 3 0
1 12 15 21 22 10 11 6 0
1 12 15 21 22 28 29 6 0
1 12 15 21 22 30 31 6 0
1 12 15 21 23 11 8 3 0
1 12 15 21 23 11 10 5 0
1 12 15 21 23 29 28 5 0
1 12 15 21 23 31 30 5 0
1 12 15 27 19 20 30 5 0
1 12 15 27 19 20 31 6 0
1 12 15 27 19 22 30 3 0
1 12 15 27 19 23 31 3 0
1 12 15 27 28 10 8 3 0
1 12 15 27 28 10 11 6 0
1 12 15 27 28 22 20 3 0
1 12 15 27 28 22 23 6 0
1 12 15 27 28 30 31 6 0
1 12 15 27 29 11 8 3 0
1 12 15 27 29 11 10 5 0
1 12 15 27 29 23 20 3 0
1 12 15 27 29 23 22 5 0
1 12 15 27 29 31 30 5 0
1 12 16 10 8 20 19 2 0
1 12 16 10 8 20 21 4 0
1 12 16 10 8 20 23 6 0
1 12 16 10 8 31 29 2 0
1 12 16 10 9 21 19 2 0
1 12 16 10 9 21 20 3 0
1 12 16 10 9 21 23 6 0
1 12 16 10 9 27 29 6 0
1 12 16 10 11 23 19 2 0
1 12 16 10 11 23 20 3 0
1 12 16 10 11 23 21 4 0
1 12 16 10 11 29 27 4 0
1 12 16 22 19 29 31 3 0
1 12 16 22 20 8 9 4 0
1 12 16 22 20 8 11 6 0
1 12 16 22 20 31 29 2 0
1 12 16 22 21 9 8 3 0
1 12 16 22 21 9 11 6 0
1 12 16 22 21 27 29 6 0
1 12 16 22 23 11 8 3 0
1 12 16 22 23 11 9 4 0
1 12 16 22 23 29 27 4 0
1 12 16 28 19 20 31 6 0
1 12 16 28 19 23 31 3 0
1 12 16 28 27 9 8 3 0
1 12 16 28 27 9 11 6 0
1 12 16 28 27 21 20 3 0
1 12 16 28 27 21 23 6 0
1 12 16 28 29 11 8 3 0
1 12 16 28 29 11 9 4 0
1 12 16 28 29 23 20 3 0
1 12 16 28 29 23 21 4 0
1 12 16 30 8 9 27 2 0
1 12 16 30 8 11 29 2 0
1 12 16 30 20 19 27 4 0
1 12 16 30 20 19 29 6 0
1 12 16 30 20 21 27 2 0
1 12 16 30 20 23 29 2 0
1 12 16 30 31 11 9 4 0
1 12 16 30 31 23 19 2 0
1 12 16 30 31 23 21 4 0
1 12 16 30 31 29 27 4 0
1 12 17 11 8 20 19 2 0
1 12 17 11 8 20 21 4 0
1 12 17 11 8 20 22 5 0
1 12 17 11 8 30 28 2 0
1 12 17 11 9 21 19 2 0
1 12 17 11 9 21 20 3 0
1 12 17 11 9 21 22 5 0
1 12 17 11 9 27 28 5 0
1 12 17 11 10 22 19 2 0
1 12 17 11 10 22 20 3 0
1 12 17 11 10 22 21 4 0
1 12 17 11 10 28 27 4 0
1 12 17 23 19 28 30 3 0
1 12 17 23 20 8 9 4 0
1 12 17 23 20 8 10 5 0
1 12 17 23 20 30 28 2 0
1 12 17 23 21 9 8 3 0
1 12 17 23 21 9 10 5 0
1 12 17 23 21 27 28 5 0
1 12 17 23 22 10 8 3 0
1 12 17 23 22 10 9 4 0
1 12 17 23 22 28 27 4 0
1 12 17 29 19 20 30 5 0
1 12 17 29 19 22 30 3 0
1 12 17 29 27 9 8 3 0
1 12 17 29 27 9 10 5 0
1 12 17 29 27 21 20 3 0
1 12 17 29 27 21 22 5 0
1 12 17 29 28 10 8 3 0
1 12 17 29 28 10 9 4 0
1 12 17 29 28 22 20 3 0
1 12 17 29 28 22 21 4 0
1 12 17 31 8 9 27 2 0
1 12 17 31 8 10 28 2 0
1 12 17 31 20 19 27 4 0
1 12 17 31 20 19 28 5 0
1 12 17 31 20 21 27 2 0
1 12 17 31 20 22 28 2 0
1 12 17 31 30 10 9 4 0
1 12 17 31 30 22 19 2 0
1 12 17 31 30 22 21 4 0
1 12 17 31 30 28 27 4 0
1 18 19 13 14 8 9 4 0
1 18 19 13 14 8 10 5 0
1 18 19 13 14 8 11 6 0
1 18 19 13 15 9 8 3 0
1 18 19 13 15 9 10 5 0
1 18 19 13 15 9 11 6 0
1 18 19 13 16 10 8 3 0
1 18 19 13 16 10 9 4 0
1 18 19 13 16 10 11 6 0
1 18 19 13 16 30 31 6 0
1 18 19 13 17 11 8 3 0
1 18 19 13 17 11 9 4 0
1 18 19 13 17 11 10 5 0
1 18 19 13 17 31 30 5 0
1 18 19 27 9 8 30 5 0
1 18 19 27 9 8 31 6 0
1 18 19 27 9 10 30 3 0
1 18 19 27 9 11 31 3 0
1 18 19 27 15 14 30 5 0
1 18 19 27 15 14 31 6 0
1 18 19 27 15 16 30 3 0
1 18 19 27 15 17 31 3 0
1 18 19 28 10 8 31 6 0
1 18 19 28 10 11 31 3 0
1 18 19 28 16 14 31 6 0
1 18 19 28 16 17 31 3 0
1 18 19 28 30 8 9 4 0
1 18 19 28 30 8 11 6 0
1 18 19 28 30 14 15 4 0
1 18 19 28 30 14 17 6 0
1 18 19 29 11 8 30 5 0
1 18 19 29 11 10 30 3 0
1 18 19 29 17 14 30 5 0
1 18 19 29 17 16 30 3 0
1 18 19 29 31 8 9 4 0
1 18 19 29 31 8 10 5 0
1 18 19 29 31 14 15 4 0
1 18 19 29 31 14 16 5 0
1 18 20 8 9 15 13 2 0
1 18 20 8 9 15 16 5 0
1 18 20 8 9 15 17 6 0
1 18 20 8 9 27 28 5 0
1 18 20 8 9 27 29 6 0
1 18 20 8 10 16 13 2 0
1 18 20 8 10 16 15 4 0
1 18 20 8 10 16 17 6 0
1 18 20 8 10 28 27 4 0
1 18 20 8 10 28 29 6 0
1 18 20 8 11 17 13 2 0
1 18 20 8 11 17 15 4 0
1 18 20 8 11 17 16 5 0
1 18 20 8 11 29 27 4 0
1 18 20 8 11 29 28 5 0
1 18 20 14 15 9 10 5 0
1 18 20 14 15 9 11 6 0
1 18 20 14 15 27 28 5 0
1 18 20 14 15 27 29 6 0
1 18 20 14 16 10 9 4 0
1 18 20 14 16 10 11 6 0
1 18 20 14 16 28 27 4 0
1 18 20 14 16 28 29 6 0
1 18 20 14 17 11 9 4 0
1 18 20 14 17 11 10 5 0
1 18 20 14 17 29 27 4 0
1 18 20 14 17 29 28 5 0
1 18 20 30 10 9 27 2 0
1 18 20 30 10 11 29 2 0
1 18 20 30 16 13 27 4 0
1 18 20 30 16 13 29 6 0
1 18 20 30 16 15 27 2 0
1 18 20 30 16 17 29 2 0
1 18 20 30 28 13 15 4 0
1 18 20 30 28 13 17 6 0
1 18 20 31 11 9 27 2 0
1 18 20 31 11 10 28 2 0
1 18 20 31 17 13 27 4 0
1 18 20 31 17 13 28 5 0
1 18 20 31 17 15 27 2 0
1 18 20 31 17 16 28 2 0
1 18 20 31 29 13 15 4 0
1 18 20 31 29 13 16 5 0
1 18 21 9 8 14 13 2 0
1 18 21 9 8 14 16 5 0
1 18 21 9 8 14 17 6 0
1 18 21 9 8 30 28 2 0
1 18 21 9 8 31 29 2 0
1 18 21 9 10 16 13 2 0
1 18 21 9 10 16 14 3 0
1 18 21 9 10 16 17 6 0
1 18 21 9 10 28 29 6 0
1 18 21 9 10 30 31 6 0
1 18 21 9 11 17 13 2 0
1 18 21 9 11 17 14 3 0
1 18 21 9 11 17 16 5 0
1 18 21 9 11 29 28 5 0
1 18 21 9 11 31 30 5 0
1 18 21 15 13 28 30 3 0
1 18 21 15 13 29 31 3 0
1 18 21 15 14 8 10 5 0
1 18 21 15 14 8 11 6 0
1 18 21 15 14 30 28 2 0
1 18 21 15 14 31 29 2 0
1 18 21 15 16 10 8 3 0
1 18 21 15 16 10 11 6 0
1 18 21 15 16 28 29 6 0
1 18 21 15 16 30 31 6 0
1 18 21 15 17 11 8 3 0
1 18 21 15 17 11 10 5 0
1 18 21 15 17 29 28 5 0
1 18 21 15 17 31 30 5 0
1 18 21 27 13 14 30 5 0
1 18 21 27 13 14 31 6 0
1 18 21 27 13 16 30 3 0
1 18 21 27 13 17 31 3 0
1 18 21 27 28 10 8 3 0
1 18 21 27 28 10 11 6 0
1 18 21 27 28 16 14 3 0
1 18 21 27 28 16 17 6 0
1 18 21 27 28 30 31 6 0
1 18 21 27 29 11 8 3 0
1 18 21 27 29 11 10 5 0
1 18 21 27 29 17 14 3 0
1 18 21 27 29 17 16 5 0
1 18 21 27 29 31 30 5 0
1 18 22 10 8 14 13 2 0
1 18 22 10 8 14 15 4 0
1 18 22 10 8 14 17 6 0
1 18 22 10 8 31 29 2 0
1 18 22 10 9 15 13 2 0
1 18 22 10 9 15 14 3 0
1 18 22 10 9 15 17 6 0
1 18 22 10 9 27 29 6 0
1 18 22 10 11 17 13 2 0
1 18 22 10 11 17 14 3 0
1 18 22 10 11 17 15 4 0
1 18 22 10 11 29 27 4 0
1 18 22 16 13 29 31 3 0
1 18 22 16 14 8 9 4 0
1 18 22 16 14 8 11 6 0
1 18 22 16 14 31 29 2 0
1 18 22 16 15 9 8 3 0
1 18 22 16 15 9 11 6 0
1 18 22 16 15 27 29 6 0
1 18 22 16 17 11 8 3 0
1 18 22 16 17 11 9 4 0
1 18 22 16 17 29 27 4 0
1 18 22 28 13 14 31 6 0
1 18 22 28 13 17 31 3 0
1 18 22 28 27 9 8 3 0
1 18 22 28 27 9 11 6 0
1 18 22 28 27 15 14 3 0
1 18 22 28 27 15 17 6 0
1 18 22 28 29 11 8 3 0
1 18 22 28 29 11 9 4 0
1 18 22 28 29 17 14 3 0
1 18 22 28 29 17 15 4 0
1 18 22 30 8 9 27 2 0
1 18 22 30 8 11 29 2 0
1 18 22 30 14 13 27 4 0
1 18 22 30 14 13 29 6 0
1 18 22 30 14 15 27 2 0
1 18 22 30 14 17 29 2 0
1 18 22 30 31 11 9 4 0
1 18 22 30 31 17 13 2 0
1 18 22 30 31 17 15 4 0
1 18 22 30 31 29 27 4 0
1 18 23 11 8 14 13 2 0
1 18 23 11 8 14 15 4 0
1 18 23 11 8 14 16 5 0
1 18 23 11 8 30 28 2 0
1 18 23 11 9 15 13 2 0
1 18 23 11 9 15 14 3 0
1 18 23 11 9 15 16 5 0
1 18 23 11 9 27 28 5 0
1 18 23 11 10 16 13 2 0
1 18 23 11 10 16 14 3 0
1 18 23 11 10 16 15 4 0
1 18 23 11 10 28 27 4 0
1 18 23 17 13 28 30 3 0
1 18 23 17 14 8 9 4 0
1 18 23 17 14 8 10 5 0
1 18 23 17 14 30 28 2 0
1 18 23 17 15 9 8 3 0
1 18 23 17 15 9 10 5 0
1 18 23 17 15 27 28 5 0
1 18 23 17 16 10 8 3 0
1 18 23 17 16 10 9 4 0
1 18 23 17 16 28 27 4 0
1 18 23 29 13 14 30 5 0
1 18 23 29 13 16 30 3 0
1 18 23 29 27 9 8 3 0
1 18 23 29 27 9 10 5 0
1 18 23 29 27 15 14 3 0
1 18 23 29 27 15 16 5 0
1 18 23 29 28 10 8 3 0
1 18 23 29 28 10 9 4 0
1 18 23 29 28 16 14 3 0
1 18 23 29 28 16 15 4 0
1 18 23 31 8 9 27 2 0
1 18 23 31 8 10 28 2 0
1 18 23 31 14 13 27 4 0
1 18 23 31 14 13 28 5 0
1 18 23 31 14 15 27 2 0
1 18 23 31 14 16 28 2 0
1 18 23 31 30 10 9 4 0
1 18 23 31 30 16 13 2 0
1 18 23 31 30 16 15 4 0
1 18 23 31 30 28 27 4 0
1 24 9 8 14 13 28 5 0
1 24 9 8 14 13 29 6 0
1 24 9 8 14 16 28 2 0
1 24 9 8 14 17 29 2 0
1 24 9 8 20 19 28 5 0
1 24 9 8 20 19 29 6 0
1 24 9 8 20 22 28 2 0
1 24 9 8 20 23 29 2 0
1 24 9 8 30 16 13 2 0
1 24 9 8 30 16 17 6 0
1 24 9 8 30 22 19 2 0
1 24 9 8 30 22 23 6 0
1 24 9 8 30 28 29 6 0
1 24 9 8 31 17 13 2 0
1 24 9 8 31 17 16 5 0
1 24 9 8 31 23 19 2 0
1 24 9 8 31 23 22 5 0
1 24 9 8 31 29 28 5 0
1 24 9 10 16 13 29 6 0
1 24 9 10 16 14 31 6 0
1 24 9 10 16 17 29 2 0
1 24 9 10 16 17 31 3 0
1 24 9 10 22 19 29 6 0
1 24 9 10 22 20 31 6 0
1 24 9 10 22 23 29 2 0
1 24 9 10 22 23 31 3 0
1 24 9 10 28 13 14 3 0
1 24 9 10 28 13 17 6 0
1 24 9 10 28 19 20 3 0
1 24 9 10 28 19 23 6 0
1 24 9 10 28 29 31 3 0
1 24 9 10 30 14 13 2 0
1 24 9 10 30 14 17 6 0
1 24 9 10 30 20 19 2 0
1 24 9 10 30 20 23 6 0
1 24 9 10 30 31 29 2 0
1 24 9 11 17 13 28 5 0
1 24 9 11 17 14 30 5 0
1 24 9 11 17 16 28 2 0
1 24 9 11 17 16 30 3 0
1 24 9 11 23 19 28 5 0
1 24 9 11 23 20 30 5 0
1 24 9 11 23 22 28 2 0
1 24 9 11 23 22 30 3 0
1 24 9 11 29 13 14 3 0
1 24 9 11 29 13 16 5 0
1 24 9 11 29 19 20 3 0
1 24 9 11 29 19 22 5 0
1 24 9 11 29 28 30 3 0
1 24 9 11 31 14 13 2 0
1 24 9 11 31 14 16 5 0
1 24 9 11 31 20 19 2 0
1 24 9 11 31 20 22 5 0
1 24 9 11 31 30 28 2 0
1 24 15 13 19 20 30 5 0
1 24 15 13 19 20 31 6 0
1 24 15 13 19 22 30 3 0
1 24 15 13 19 23 31 3 0
1 24 15 13 28 10 8 3 0
1 24 15 13 28 10 11 6 0
1 24 15 13 28 22 20 3 0
1 24 15 13 28 22 23 6 0
1 24 15 13 28 30 31 6 0
1 24 15 13 29 11 8 3 0
1 24 15 13 29 11 10 5 0
1 24 15 13 29 23 20 3 0
1 24 15 13 29 23 22 5 0
1 24 15 13 29 31 30 5 0
1 24 15 14 8 10 28 2 0
1 24 15 14 8 11 29 2 0
1 24 15 14 20 19 28 5 0
1 24 15 14 20 19 29 6 0
1 24 15 14 20 22 28 2 0
1 24 15 14 20 23 29 2 0
1 24 15 14 30 10 11 6 0
1 24 15 14 30 22 19 2 0
1 24 15 14 30 22 23 6 0
1 24 15 14 30 28 29 6 0
1 24 15 14 31 11 10 5 0
1 24 15 14 31 23 19 2 0
1 24 15 14 31 23 22 5 0
1 24 15 14 31 29 28 5 0
1 24 15 16 10 8 31 6 0
1 24 15 16 10 11 29 2 0
1 24 15 16 10 11 31 3 0
1 24 15 16 22 19 29 6 0
1 24 15 16 22 20 31 6 0
1 24 15 16 22 23 29 2 0
1 24 15 16 22 23 31 3 0
1 24 15 16 28 19 20 3 0
1 24 15 16 28 19 23 6 0
1 24 15 16 28 29 31 3 0
1 24 15 16 30 8 11 6 0
1 24 15 16 30 20 19 2 0
1 24 15 16 30 20 23 6 0
1 24 15 16 30 31 29 2 0
1 24 15 17 11 8 30 5 0
1 24 15 17 11 10 28 2 0
1 24 15 17 11 10 30 3 0
1 24 15 17 23 19 28 5 0
1 24 15 17 23 20 30 5 0
1 24 15 17 23 22 28 2 0
1 24 15 17 23 22 30 3 0
1 24 15 17 29 19 20 3 0
1 24 15 17 29 19 22 5 0
1 24 15 17 29 28 30 3 0
1 24 15 17 31 8 10 5 0
1 24 15 17 31 20 19 2 0
1 24 15 17 31 20 22 5 0
1 24 15 17 31 30 28 2 0
1 24 21 19 13 14 30 5 0
1 24 21 19 13 14 31 6 0
1 24 21 19 13 16 30 3 0
1 24 21 19 13 17 31 3 0
1 24 21 19 28 10 8 3 0
1 24 21 19 28 10 11 6 0
1 24 21 19 28 16 14 3 0
1 24 21 19 28 16 17 6 0
1 24 21 19 28 30 31 6 0
1 24 21 19 29 11 8 3 0
1 24 21 19 29 11 10 5 0
1 24 21 19 29 17 14 3 0
1 24 21 19 29 17 16 5 0
1 24 21 19 29 31 30 5 0
1 24 21 20 8 10 28 2 0
1 24 21 20 8 11 29 2 0
1 24 21 20 14 13 28 5 0
1 24 21 20 14 13 29 6 0
1 24 21 20 14 16 28 2 0
1 24 21 20 14 17 29 2 0
1 24 21 20 30 10 11 6 0
1 24 21 20 30 16 13 2 0
1 24 21 20 30 16 17 6 0
1 24 21 20 30 28 29 6 0
1 24 21 20 31 11 10 5 0
1 24 21 20 31 17 13 2 0
1 24 21 20 31 17 16 5 0
1 24 21 20 31 29 28 5 0
1 24 21 22 10 8 31 6 0
1 24 21 22 10 11 29 2 0
1 24 21 22 10 11 31 3 0
1 24 21 22 16 13 29 6 0
1 24 21 22 16 14 31 6 0
1 24 21 22 16 17 29 2 0
1 24 21 22 16 17 31 3 0
1 24 21 22 28 13 14 3 0
1 24 21 22 28 13 17 6 0
1 24 21 22 28 29 31 3 0
1 24 21 22 30 8 11 6 0
1 24 21 22 30 14 13 2 0
1 24 21 22 30 14 17 6 0
1 24 21 22 30 31 29 2 0
1 24 21 23 11 8 30 5 0
1 24 21 23 11 10 28 2 0
1 24 21 23 11 10 30 3 0
1 24 21 23 17 13 28 5 0
1 24 21 23 17 14 30 5 0
1 24 21 23 17 16 28 2 0
1 24 21 23 17 16 30 3 0
1 24 21 23 29 13 14 3 0
1 24 21 23 29 13 16 5 0
1 24 21 23 29 28 30 3 0
1 24 21 23 31 8 10 5 0
1 24 21 23 31 14 13 2 0
1 24 21 23 31 14 16 5 0
1 24 21 23 31 30 28 2 0
1 24 27 13 14 8 10 5 0
1 24 27 13 14 8 11 6 0
1 24 27 13 14 20 22 5 0
1 24 27 13 14 20 23 6 0
1 24 27 13 16 10 8 3 0
1 24 27 13 16 10 11 6 0
1 24 27 13 16 22 20 3 0
1 24 27 13 16 22 23 6 0
1 24 27 13 16 30 31 6 0
1 24 27 13 17 11 8 3 0
1 24 27 13 17 11 10 5 0
1 24 27 13 17 23 20 3 0
1 24 27 13 17 23 22 5 0
1 24 27 13 17 31 30 5 0
1 24 27 19 20 8 10 5 0
1 24 27 19 20 8 11 6 0
1 24 27 19 20 14 16 5 0
1 24 27 19 20 14 17 6 0
1 24 27 19 22 10 8 3 0
1 24 27 19 22 10 11 6 0
1 24 27 19 22 16 14 3 0
1 24 27 19 22 16 17 6 0
1 24 27 19 22 30 31 6 0
1 24 27 19 23 11 8 3 0
1 24 27 19 23 11 10 5 0
1 24 27 19 23 17 14 3 0
1 24 27 19 23 17 16 5 0
1 24 27 19 23 31 30 5 0
1 24 27 28 10 8 31 6 0
1 24 27 28 10 11 31 3 0
1 24 27 28 16 14 31 6 0
1 24 27 28 16 17 31 3 0
1 24 27 28 22 20 31 6 0
1 24 27 28 22 23 31 3 0
1 24 27 28 30 8 11 6 0
1 24 27 28 30 14 17 6 0
1 24 27 28 30 20 23 6 0
1 24 27 29 11 8 30 5 0
1 24 27 29 11 10 30 3 0
1 24 27 29 17 14 30 5 0
1 24 27 29 17 16 30 3 0
1 24 27 29 23 20 30 5 0
1 24 27 29 23 22 30 3 0
1 24 27 29 31 8 10 5 0
1 24 27 29 31 14 16 5 0
1 24 27 29 31 20 22 5 0
1 25 10 8 14 13 27 4 0
1 25 10 8 14 13 29 6 0
1 25 10 8 14 15 27 2 0
1 25 10 8 14 17 29 2 0
1 25 10 8 20 19 27 4 0
1 25 10 8 20 19 29 6 0
1 25 10 8 20 21 27 2 0
1 25 10 8 20 23 29 2 0
1 25 10 8 31 17 13 2 0
1 25 10 8 31 17 15 4 0
1 25 10 8 31 23 19 2 0
1 25 10 8 31 23 21 4 0
1 25 10 8 31 29 27 4 0
1 25 10 9 15 13 29 6 0
1 25 10 9 15 14 31 6 0
1 25 10 9 15 17 29 2 0
1 25 10 9 15 17 31 3 0
1 25 10 9 21 19 29 6 0
1 25 10 9 21 20 31 6 0
1 25 10 9 21 23 29 2 0
1 25 10 9 21 23 31 3 0
1 25 10 9 27 13 14 3 0
1 25 10 9 27 13 17 6 0
1 25 10 9 27 19 20 3 0
1 25 10 9 27 19 23 6 0
1 25 10 9 27 29 31 3 0
1 25 10 11 17 13 27 4 0
1 25 10 11 17 15 27 2 0
1 25 10 11 23 19 27 4 0
1 25 10 11 23 21 27 2 0
1 25 10 11 29 13 14 3 0
1 25 10 11 29 13 15 4 0
1 25 10 11 29 19 20 3 0
1 25 10 11 29 19 21 4 0
1 25 10 11 31 14 13 2 0
1 25 10 11 31 14 15 4 0
1 25 10 11 31 20 19 2 0
1 25 10 11 31 20 21 4 0
1 25 16 13 19 20 31 6 0
1 25 16 13 19 23 31 3 0
1 25 16 13 27 9 8 3 0
1 25 16 13 27 9 11 6 0
1 25 16 13 27 21 20 3 0
1 25 16 13 27 21 23 6 0
1 25 16 13 29 11 8 3 0
1 25 16 13 29 11 9 4 0
1 25 16 13 29 23 20 3 0
1 25 16 13 29 23 21 4 0
1 25 16 14 8 9 27 2 0
1 25 16 14 8 11 29 2 0
1 25 16 14 20 19 27 4 0
1 25 16 14 20 19 29 6 0
1 25 16 14 20 21 27 2 0
1 25 16 14 20 23 29 2 0
1 25 16 14 31 11 9 4 0
1 25 16 14 31 23 19 2 0
1 25 16 14 31 23 21 4 0
1 25 16 14 31 29 27 4 0
1 25 16 15 9 8 31 6 0
1 25 16 15 9 11 29 2 0
1 25 16 15 9 11 31 3 0
1 25 16 15 21 19 29 6 0
1 25 16 15 21 20 31 6 0
1 25 16 15 21 23 29 2 0
1 25 16 15 21 23 31 3 0
1 25 16 15 27 19 20 3 0
1 25 16 15 27 19 23 6 0
1 25 16 15 27 29 31 3 0
1 25 16 17 11 9 27 2 0
1 25 16 17 23 19 27 4 0
1 25 16 17 23 21 27 2 0
1 25 16 17 29 19 20 3 0
1 25 16 17 29 19 21 4 0
1 25 16 17 31 8 9 4 0
1 25 16 17 31 20 19 2 0
1 25 16 17 31 20 21 4 0
1 25 22 19 13 14 31 6 0
1 25 22 19 13 17 31 3 0
1 25 22 19 27 9 8 3 0
1 25 22 19 27 9 11 6 0
1 25 22 19 27 15 14 3 0
1 25 22 19 27 15 17 6 0
1 25 22 19 29 11 8 3 0
1 25 22 19 29 11 9 4 0
1 25 22 19 29 17 14 3 0
1 25 22 19 29 17 15 4 0
1 25 22 20 8 9 27 2 0
1 25 22 20 8 11 29 2 0
1 25 22 20 14 13 27 4 0
1 25 22 20 14 13 29 6 0
1 25 22 20 14 15 27 2 0
1 25 22 20 14 17 29 2 0
1 25 22 20 31 11 9 4 0
1 25 22 20 31 17 13 2 0
1 25 22 20 31 17 15 4 0
1 25 22 20 31 29 27 4 0
1 25 22 21 9 8 31 6 0
1 25 22 21 9 11 29 2 0
1 25 22 21 9 11 31 3 0
1 25 22 21 15 13 29 6 0
1 25 22 21 15 14 31 6 0
1 25 22 21 15 17 29 2 0
1 25 22 21 15 17 31 3 0
1 25 22 21 27 13 14 3 0
1 25 22 21 27 13 17 6 0
1 25 22 21 27 29 31 3 0
1 25 22 23 11 9 27 2 0
1 25 22 23 17 13 27 4 0
1 25 22 23 17 15 27 2 0
1 25 22 23 29 13 14 3 0
1 25 22 23 29 13 15 4 0
1 25 22 23 31 8 9 4 0
1 25 22 23 31 14 13 2 0
1 25 22 23 31 14 15 4 0
1 25 28 13 14 8 9 4 0
1 25 28 13 14 8 11 6 0
1 25 28 13 14 20 21 4 0
1 25 28 13 14 20 23 6 0
1 25 28 13 15 9 8 3 0
1 25 28 13 15 9 11 6 0
1 25 28 13 15 21 20 3 0
1 25 28 13 15 21 23 6 0
1 25 28 13 17 11 8 3 0
1 25 28 13 17 11 9 4 0
1 25 28 13 17 23 20 3 0
1 25 28 13 17 23 21 4 0
1 25 28 19 20 8 9 4 0
1 25 28 19 20 8 11 6 0
1 25 28 19 20 14 15 4 0
1 25 28 19 20 14 17 6 0
1 25 28 19 21 9 8 3 0
1 25 28 19 21 9 11 6 0
1 25 28 19 21 15 14 3 0
1 25 28 19 21 15 17 6 0
1 25 28 19 23 11 8 3 0
1 25 28 19 23 11 9 4 0
1 25 28 19 23 17 14 3 0
1 25 28 19 23 17 15 4 0
1 25 28 27 9 8 31 6 0
1 25 28 27 9 11 31 3 0
1 25 28 27 15 14 31 6 0
1 25 28 27 15 17 31 3 0
1 25 28 27 21 20 31 6 0
1 25 28 27 21 23 31 3 0
1 25 28 29 31 8 9 4 0
1 25 28 29 31 14 15 4 0
1 25 28 29 31 20 21 4 0
1 25 30 8 9 15 13 2 0
1 25 30 8 9 15 17 6 0
1 25 30 8 9 21 19 2 0
1 25 30 8 9 21 23 6 0
1 25 30 8 9 27 29 6 0
1 25 30 8 11 17 13 2 0
1 25 30 8 11 17 15 4 0
1 25 30 8 11 23 19 2 0
1 25 30 8 11 23 21 4 0
1 25 30 8 11 29 27 4 0
1 25 30 14 13 19 21 4 0
1 25 30 14 13 19 23 6 0
1 25 30 14 15 9 11 6 0
1 25 30 14 15 21 19 2 0
1 25 30 14 15 21 23 6 0
1 25 30 14 15 27 29 6 0
1 25 30 14 17 11 9 4 0
1 25 30 14 17 23 19 2 0
1 25 30 14 17 23 21 4 0
1 25 30 14 17 29 27 4 0
1 25 30 20 19 13 15 4 0
1 25 30 20 19 13 17 6 0
1 25 30 20 21 9 11 6 0
1 25 30 20 21 15 13 2 0
1 25 30 20 21 15 17 6 0
1 25 30 20 21 27 29 6 0
1 25 30 20 23 11 9 4 0
1 25 30 20 23 17 13 2 0
1 25 30 20 23 17 15 4 0
1 25 30 20 23 29 27 4 0
1 25 30 31 11 9 27 2 0
1 25 30 31 17 13 27 4 0
1 25 30 31 17 15 27 2 0
1 25 30 31 23 19 27 4 0
1 25 30 31 23 21 27 2 0
1 25 30 31 29 13 15 4 0
1 25 30 31 29 19 21 4 0
1 26 11 8 14 13 27 4 0
1 26 11 8 14 13 28 5 0
1 26 11 8 14 15 27 2 0
1 26 11 8 14 16 28 2 0
1 26 11 8 20 19 27 4 0
1 26 11 8 20 19 28 5 0
1 26 11 8 20 21 27 2 0
1 26 11 8 20 22 28 2 0
1 26 11 8 30 16 13 2 0
1 26 11 8 30 16 15 4 0
1 26 11 8 30 22 19 2 0
1 26 11 8 30 22 21 4 0
1 26 11 8 30 28 27 4 0
1 26 11 9 15 13 28 5 0
1 26 11 9 15 14 30 5 0
1 26 11 9 15 16 28 2 0
1 26 11 9 15 16 30 3 0
1 26 11 9 21 19 28 5 0
1 26 11 9 21 20 30 5 0
1 26 11 9 21 22 28 2 0
1 26 11 9 21 22 30 3 0
1 26 11 9 27 13 14 3 0
1 26 11 9 27 13 16 5 0
1 26 11 9 27 19 20 3 0
1 26 11 9 27 19 22 5 0
1 26 11 9 27 28 30 3 0
1 26 11 10 16 13 27 4 0
1 26 11 10 16 15 27 2 0
1 26 11 10 22 19 27 4 0
1 26 11 10 22 21 27 2 0
1 26 11 10 28 13 14 3 0
1 26 11 10 28 13 15 4 0
1 26 11 10 28 19 20 3 0
1 26 11 10 28 19 21 4 0
1 26 11 10 30 14 13 2 0
1 26 11 10 30 14 15 4 0
1 26 11 10 30 20 19 2 0
1 26 11 10 30 20 21 4 0
1 26 17 13 19 20 30 5 0
1 26 17 13 19 22 30 3 0
1 26 17 13 27 9 8 3 0
1 26 17 13 27 9 10 5 0
1 26 17 13 27 21 20 3 0
1 26 17 13 27 21 22 5 0
1 26 17 13 28 10 8 3 0
1 26 17 13 28 10 9 4 0
1 26 17 13 28 22 20 3 0
1 26 17 13 28 22 21 4 0
1 26 17 14 8 9 27 2 0
1 26 17 14 8 10 28 2 0
1 26 17 14 20 19 27 4 0
1 26 17 14 20 19 28 5 0
1 26 17 14 20 21 27 2 0
1 26 17 14 20 22 28 2 0
1 26 17 14 30 10 9 4 0
1 26 17 14 30 22 19 2 0
1 26 17 14 30 22 21 4 0
1 26 17 14 30 28 27 4 0
1 26 17 15 9 8 30 5 0
1 26 17 15 9 10 28 2 0
1 26 17 15 9 10 30 3 0
1 26 17 15 21 19 28 5 0
1 26 17 15 21 20 30 5 0
1 26 17 15 21 22 28 2 0
1 26 17 15 21 22 30 3 0
1 26 17 15 27 19 20 3 0
1 26 17 15 27 19 22 5 0
1 26 17 15 27 28 30 3 0
1 26 17 16 10 9 27 2 0
1 26 17 16 22 19 27 4 0
1 26 17 16 22 21 27 2 0
1 26 17 16 28 19 20 3 0
1 26 17 16 28 19 21 4 0
1 26 17 16 30 8 9 4 0
1 26 17 16 30 20 19 2 0
1 26 17 16 30 20 21 4 0
1 26 23 19 13 14 30 5 0
1 26 23 19 13 16 30 3 0
1 26 23 19 27 9 8 3 0
1 26 23 19 27 9 10 5 0
1 26 23 19 27 15 14 3 0
1 26 23 19 27 15 16 5 0
1 26 23 19 28 10 8 3 0
1 26 23 19 28 10 9 4 0
1 26 23 19 28 16 14 3 0
1 26 23 19 28 16 15 4 0
1 26 23 20 8 9 27 2 0
1 26 23 20 8 10 28 2 0
1 26 23 20 14 13 27 4 0
1 26 23 20 14 13 28 5 0
1 26 23 20 14 15 27 2 0
1 26 23 20 14 16 28 2 0
1 26 23 20 30 10 9 4 0
1 26 23 20 30 16 13 2 0
1 26 23 20 30 16 15 4 0
1 26 23 20 30 28 27 4 0
1 26 23 21 9 8 30 5 0
1 26 23 21 9 10 28 2 0
1 26 23 21 9 10 30 3 0
1 26 23 21 15 13 28 5 0
1 26 23 21 15 14 30 5 0
1 26 23 21 15 16 28 2 0
1 26 23 21 15 16 30 3 0
1 26 23 21 27 13 14 3 0
1 26 23 21 27 13 16 5 0
1 26 23 21 27 28 30 3 0
1 26 23 22 10 9 27 2 0
1 26 23 22 16 13 27 4 0
1 26 23 22 16 15 27 2 0
1 26 23 22 28 13 14 3 0
1 26 23 22 28 13 15 4 0
1 26 23 22 30 8 9 4 0
1 26 23 22 30 14 13 2 0
1 26 23 22 30 14 15 4 0
1 26 29 13 14 8 9 4 0
1 26 29 13 14 8 10 5 0
1 26 29 13 14 20 21 4 0
1 26 29 13 14 20 22 5 0
1 26 29 13 15 9 8 3 0
1 26 29 13 15 9 10 5 0
1 26 29 13 15 21 20 3 0
1 26 29 13 15 21 22 5 0
1 26 29 13 16 10 8 3 0
1 26 29 13 16 10 9 4 0
1 26 29 13 16 22 20 3 0
1 26 29 13 16 22 21 4 0
1 26 29 19 20 8 9 4 0
1 26 29 19 20 8 10 5 0
1 26 29 19 20 14 15 4 0
1 26 29 19 20 14 16 5 0
1 26 29 19 21 9 8 3 0
1 26 29 19 21 9 10 5 0
1 26 29 19 21 15 14 3 0
1 26 29 19 21 15 16 5 0
1 26 29 19 22 10 8 3 0
1 26 29 19 22 10 9 4 0
1 26 29 19 22 16 14 3 0
1 26 29 19 22 16 15 4 0
1 26 29 27 9 8 30 5 0
1 26 29 27 9 10 30 3 0
1 26 29 27 15 14 30 5 0
1 26 29 27 15 16 30 3 0
1 26 29 27 21 20 30 5 0
1 26 29 27 21 22 30 3 0
1 26 29 28 30 8 9 4 0
1 26 29 28 30 14 15 4 0
1 26 29 28 30 20 21 4 0
1 26 31 8 9 15 13 2 0
1 26 31 8 9 15 16 5 0
1 26 31 8 9 21 19 2 0
1 26 31 8 9 21 22 5 0
1 26 31 8 9 27 28 5 0
1 26 31 8 10 16 13 2 0
1 26 31 8 10 16 15 4 0
1 26 31 8 10 22 19 2 0
1 26 31 8 10 22 21 4 0
1 26 31 8 10 28 27 4 0
1 26 31 14 13 19 21 4 0
1 26 31 14 13 19 22 5 0
1 26 31 14 15 9 10 5 0
1 26 31 14 15 21 19 2 0
1 26 31 14 15 21 22 5 0
1 26 31 14 15 27 28 5 0
1 26 31 14 16 10 9 4 0
1 26 31 14 16 22 19 2 0
1 26 31 14 16 22 21 4 0
1 26 31 14 16 28 27 4 0
1 26 31 20 19 13 15 4 0
1 26 31 20 19 13 16 5 0
1 26 31 20 21 9 10 5 0
1 26 31 20 21 15 13 2 0
1 26 31 20 21 15 16 5 0
1 26 31 20 21 27 28 5 0
1 26 31 20 22 10 9 4 0
1 26 31 20 22 16 13 2 0
1 26 31 20 22 16 15 4 0
1 26 31 20 22 28 27 4 0
1 26 31 30 10 9 27 2 0
1 26 31 30 16 13 27 4 0
1 26 31 30 16 15 27 2 0
1 26 31 30 22 19 27 4 0
1 26 31 30 22 21 27 2 0
1 26 31 30 28 13 15 4 0
1 26 31 30 28 19 21 4 0
2 13 12 7 8 20 21 4 0
2 13 12 7 8 20 22 5 0
2 13 12 7 8 20 23 6 0
2 13 12 7 9 21 20 3 0
2 13 12 7 9 21 22 5 0
2 13 12 7 9 21 23 6 0
2 13 12 7 10 22 20 3 0
2 13 12 7 10 22 21 4 0
2 13 12 7 10 22 23 6 0
2 13 12 7 10 30 31 6 0
2 13 12 7 11 23 20 3 0
2 13 12 7 11 23 21 4 0
2 13 12 7 11 23 22 5 0
2 13 12 7 11 31 30 5 0
2 13 12 18 20 8 9 4 0
2 13 12 18 20 8 10 5 0
2 13 12 18 20 8 11 6 0
2 13 12 18 21 9 8 3 0
2 13 12 18 21 9 10 5 0
2 13 12 18 21 9 11 6 0
2 13 12 18 22 10 8 3 0
2 13 12 18 22 10 9 4 0
2 13 12 18 22 10 11 6 0
2 13 12 18 22 30 31 6 0
2 13 12 18 23 11 8 3 0
2 13 12 18 23 11 9 4 0
2 13 12 18 23 11 10 5 0
2 13 12 18 23 31 30 5 0
2 13 12 24 9 8 30 5 0
2 13 12 24 9 8 31 6 0
2 13 12 24 9 10 30 3 0
2 13 12 24 9 11 31 3 0
2 13 12 24 21 20 30 5 0
2 13 12 24 21 20 31 6 0
2 13 12 24 21 22 30 3 0
2 13 12 24 21 23 31 3 0
2 13 12 25 10 8 31 6 0
2 13 12 25 10 11 31 3 0
2 13 12 25 22 20 31 6 0
2 13 12 25 22 23 31 3 0
2 13 12 25 30 8 9 4 0
2 13 12 25 30 8 11 6 0
2 13 12 25 30 20 21 4 0
2 13 12 25 30 20 23 6 0
2 13 12 26 11 8 30 5 0
2 13 12 26 11 10 30 3 0
2 13 12 26 23 20 30 5 0
2 13 12 26 23 22 30 3 0
2 13 12 26 31 8 9 4 0
2 13 12 26 31 8 10 5 0
2 13 12 26 31 20 21 4 0
2 13 12 26 31 20 22 5 0
2 13 14 8 7 18 21 4 0
2 13 14 8 7 18 22 5 0
2 13 14 8 7 18 23 6 0
2 13 14 8 9 21 22 5 0
2 13 14 8 9 21 23 6 0
2 13 14 8 9 24 25 5 0
2 13 14 8 9 24 26 6 0
2 13 14 8 10 22 21 4 0
2 13 14 8 10 22 23 6 0
2 13 14 8 10 25 24 4 0
2 13 14 8 10 25 26 6 0
2 13 14 8 11 23 21 4 0
2 13 14 8 11 23 22 5 0
2 13 14 8 11 26 24 4 0
2 13 14 8 11 26 25 5 0
2 13 14 20 18 7 9 4 0
2 13 14 20 18 7 10 5 0
2 13 14 20 18 7 11 6 0
2 13 14 20 21 9 10 5 0
2 13 14 20 21 9 11 6 0
2 13 14 20 21 24 25 5 0
2 13 14 20 21 24 26 6 0
2 13 14 20 22 10 9 4 0
2 13 14 20 22 10 11 6 0
2 13 14 20 22 25 24 4 0
2 13 14 20 22 25 26 6 0
2 13 14 20 23 11 9 4 0
2 13 14 20 23 11 10 5 0
2 13 14 20 23 26 24 4 0
2 13 14 20 23 26 25 5 0
2 13 14 30 10 7 24 4 0
2 13 14 30 10 7 26 6 0
2 13 14 30 22 18 24 4 0
2 13 14 30 22 18 26 6 0
2 13 14 30 25 7 9 4 0
2 13 14 30 25 7 11 6 0
2 13 14 30 25 18 21 4 0
2 13 14 30 25 18 23 6 0
2 13 14 31 11 7 24 4 0
2 13 14 31 11 7 25 5 0
2 13 14 31 23 18 24 4 0
2 13 14 31 23 18 25 5 0
2 13 14 31 26 7 9 4 0
2 13 14 31 26 7 10 5 0
2 13 14 31 26 18 21 4 0
2 13 14 31 26 18 22 5 0
2 13 15 9 7 18 20 3 0
2 13 15 9 7 18 22 5 0
2 13 15 9 7 18 23 6 0
2 13 15 9 7 25 30 3 0
2 13 15 9 7 26 31 3 0
2 13 15 9 8 20 22 5 0
2 13 15 9 8 20 23 6 0
2 13 15 9 10 22 20 3 0
2 13 15 9 10 22 23 6 0
2 13 15 9 10 25 26 6 0
2 13 15 9 10 30 31 6 0
2 13 15 9 11 23 20 3 0
2 13 15 9 11 23 22 5 0
2 13 15 9 11 26 25 5 0
2 13 15 9 11 31 30 5 0
2 13 15 21 18 7 8 3 0
2 13 15 21 18 7 10 5 0
2 13 15 21 18 7 11 6 0
2 13 15 21 18 25 30 3 0
2 13 15 21 18 26 31 3 0
2 13 15 21 20 8 10 5 0
2 13 15 21 20 8 11 6 0
2 13 15 21 22 10 8 3 0
2 13 15 21 22 10 11 6 0
2 13 15 21 22 25 26 6 0
2 13 15 21 22 30 31 6 0
2 13 15 21 23 11 8 3 0
2 13 15 21 23 11 10 5 0
2 13 15 21 23 26 25 5 0
2 13 15 21 23 31 30 5 0
2 13 15 24 7 8 30 5 0
2 13 15 24 7 8 31 6 0
2 13 15 24 7 10 30 3 0
2 13 15 24 7 11 31 3 0
2 13 15 24 18 20 30 5 0
2 13 15 24 18 20 31 6 0
2 13 15 24 18 22 30 3 0
2 13 15 24 18 23 31 3 0
2 13 15 24 25 10 8 3 0
2 13 15 24 25 10 11 6 0
2 13 15 24 25 22 20 3 0
2 13 15 24 25 22 23 6 0
2 13 15 24 25 30 31 6 0
2 13 15 24 26 11 8 3 0
2 13 15 24 26 11 10 5 0
2 13 15 24 26 23 20 3 0
2 13 15 24 26 23 22 5 0
2 13 15 24 26 31 30 5 0
2 13 16 10 7 18 20 3 0
2 13 16 10 7 18 21 4 0
2 13 16 10 7 18 23 6 0
2 13 16 10 7 26 31 3 0
2 13 16 10 8 20 21 4 0
2 13 16 10 8 20 23 6 0
2 13 16 10 9 21 20 3 0
2 13 16 10 9 21 23 6 0
2 13 16 10 9 24 26 6 0
2 13 16 10 11 23 20 3 0
2 13 16 10 11 23 21 4 0
2 13 16 10 11 26 24 4 0
2 13 16 22 18 7 8 3 0
2 13 16 22 18 7 9 4 0
2 13 16 22 18 7 11 6 0
2 13 16 22 18 26 31 3 0
2 13 16 22 20 8 9 4 0
2 13 16 22 20 8 11 6 0
2 13 16 22 21 9 8 3 0
2 13 16 22 21 9 11 6 0
2 13 16 22 21 24 26 6 0
2 13 16 22 23 11 8 3 0
2 13 16 22 23 11 9 4 0
2 13 16 22 23 26 24 4 0
2 13 16 25 7 8 31 6 0
2 13 16 25 7 11 31 3 0
2 13 16 25 18 20 31 6 0
2 13 16 25 18 23 31 3 0
2 13 16 25 24 9 8 3 0
2 13 16 25 24 9 11 6 0
2 13 16 25 24 21 20 3 0
2 13 16 25 24 21 23 6 0
2 13 16 25 26 11 8 3 0
2 13 16 25 26 11 9 4 0
2 13 16 25 26 23 20 3 0
2 13 16 25 26 23 21 4 0
2 13 16 30 8 7 24 4 0
2 13 16 30 8 7 26 6 0
2 13 16 30 20 18 24 4 0
2 13 16 30 20 18 26 6 0
2 13 16 30 31 11 9 4 0
2 13 16 30 31 23 21 4 0
2 13 16 30 31 26 24 4 0
2 13 17 11 7 18 20 3 0
2 13 17 11 7 18 21 4 0
2 13 17 11 7 18 22 5 0
2 13 17 11 7 25 30 3 0
2 13 17 11 8 20 21 4 0
2 13 17 11 8 20 22 5 0
2 13 17 11 9 21 20 3 0
2 13 17 11 9 21 22 5 0
2 13 17 11 9 24 25 5 0
2 13 17 11 10 22 20 3 0
2 13 17 11 10 22 21 4 0
2 13 17 11 10 25 24 4 0
2 13 17 23 18 7 8 3 0
2 13 17 23 18 7 9 4 0
2 13 17 23 18 7 10 5 0
2 13 17 23 18 25 30 3 0
2 13 17 23 20 8 9 4 0
2 13 17 23 20 8 10 5 0
2 13 17 23 21 9 8 3 0
2 13 17 23 21 9 10 5 0
2 13 17 23 21 24 25 5 0
2 13 17 23 22 10 8 3 0
2 13 17 23 22 10 9 4 0
2 13 17 23 22 25 24 4 0
2 13 17 26 7 8 30 5 0
2 13 17 26 7 10 30 3 0
2 13 17 26 18 20 30 5 0
2 13 17 26 18 22 30 3 0
2 13 17 26 24 9 8 3 0
2 13 17 26 24 9 10 5 0
2 13 17 26 24 21 20 3 0
2 13 17 26 24 21 22 5 0
2 13 17 26 25 10 8 3 0
2 13 17 26 25 10 9 4 0
2 13 17 26 25 22 20 3 0
2 13 17 26 25 22 21 4 0
2 13 17 31 8 7 24 4 0
2 13 17 31 8 7 25 5 0
2 13 17 31 20 18 24 4 0
2 13 17 31 20 18 25 5 0
2 13 17 31 30 10 9 4 0
2 13 17 31 30 22 21 4 0
2 13 17 31 30 25 24 4 0
2 19 18 7 8 14 15 4 0
2 19 18 7 8 14 16 5 0
2 19 18 7 8 14 17 6 0
2 19 18 7 9 15 14 3 0
2 19 18 7 9 15 16 5 0
2 19 18 7 9 15 17 6 0
2 19 18 7 10 16 14 3 0
2 19 18 7 10 16 15 4 0
2 19 18 7 10 16 17 6 0
2 19 18 7 10 30 31 6 0
2 19 18 7 11 17 14 3 0
2 19 18 7 11 17 15 4 0
2 19 18 7 11 17 16 5 0
2 19 18 7 11 31 30 5 0
2 19 18 12 14 8 9 4 0
2 19 18 12 14 8 10 5 0
2 19 18 12 14 8 11 6 0
2 19 18 12 15 9 8 3 0
2 19 18 12 15 9 10 5 0
2 19 18 12 15 9 11 6 0
2 19 18 12 16 10 8 3 0
2 19 18 12 16 10 9 4 0
2 19 18 12 16 10 11 6 0
2 19 18 12 16 30 31 6 0
2 19 18 12 17 11 8 3 0
2 19 18 12 17 11 9 4 0
2 19 18 12 17 11 10 5 0
2 19 18 12 17 31 30 5 0
2 19 18 24 9 8 30 5 0
2 19 18 24 9 8 31 6 0
2 19 18 24 9 10 30 3 0
2 19 18 24 9 11 31 3 0
2 19 18 24 15 14 30 5 0
2 19 18 24 15 14 31 6 0
2 19 18 24 15 16 30 3 0
2 19 18 24 15 17 31 3 0
2 19 18 25 10 8 31 6 0
2 19 18 25 10 11 31 3 0
2 19 18 25 16 14 31 6 0
2 19 18 25 16 17 31 3 0
2 19 18 25 30 8 9 4 0
2 19 18 25 30 8 11 6 0
2 19 18 25 30 14 15 4 0
2 19 18 25 30 14 17 6 0
2 19 18 26 11 8 30 5 0
2 19 18 26 11 10 30 3 0
2 19 18 26 17 14 30 5 0
2 19 18 26 17 16 30 3 0
2 19 18 26 31 8 9 4 0
2 19 18 26 31 8 10 5 0
2 19 18 26 31 14 15 4 0
2 19 18 26 31 14 16 5 0
2 19 20 8 7 12 15 4 0
2 19 20 8 7 12 16 5 0
2 19 20 8 7 12 17 6 0
2 19 20 8 9 15 16 5 0
2 19 20 8 9 15 17 6 0
2 19 20 8 9 24 25 5 0
2 19 20 8 9 24 26 6 0
2 19 20 8 10 16 15 4 0
2 19 20 8 10 16 17 6 0
2 19 20 8 10 25 24 4 0
2 19 20 8 10 25 26 6 0
2 19 20 8 11 17 15 4 0
2 19 20 8 11 17 16 5 0
2 19 20 8 11 26 24 4 0
2 19 20 8 11 26 25 5 0
2 19 20 14 12 7 9 4 0
2 19 20 14 12 7 10 5 0
2 19 20 14 12 7 11 6 0
2 19 20 14 15 9 10 5 0
2 19 20 14 15 9 11 6 0
2 19 20 14 15 24 25 5 0
2 19 20 14 15 24 26 6 0
2 19 20 14 16 10 9 4 0
2 19 20 14 16 10 11 6 0
2 19 20 14 16 25 24 4 0
2 19 20 14 16 25 26 6 0
2 19 20 14 17 11 9 4 0
2 19 20 14 17 11 10 5 0
2 19 20 14 17 26 24 4 0
2 19 20 14 17 26 25 5 0
2 19 20 30 10 7 24 4 0
2 19 20 30 10 7 26 6 0
2 19 20 30 16 12 24 4 0
2 19 20 30 16 12 26 6 0
2 19 20 30 25 7 9 4 0
2 19 20 30 25 7 11 6 0
2 19 20 30 25 12 15 4 0
2 19 20 30 25 12 17 6 0
2 19 20 31 11 7 24 4 0
2 19 20 31 11 7 25 5 0
2 19 20 31 17 12 24 4 0
2 19 20 31 17 12 25 5 0
2 19 20 31 26 7 9 4 0
2 19 20 31 26 7 10 5 0
2 19 20 31 26 12 15 4 0
2 19 20 31 26 12 16 5 0
2 19 21 9 7 12 14 3 0
2 19 21 9 7 12 16 5 0
2 19 21 9 7 12 17 6 0
2 19 21 9 7 25 30 3 0
2 19 21 9 7 26 31 3 0
2 19 21 9 8 14 16 5 0
2 19 21 9 8 14 17 6 0
2 19 21 9 10 16 14 3 0
2 19 21 9 10 16 17 6 0
2 19 21 9 10 25 26 6 0
2 19 21 9 10 30 31 6 0
2 19 21 9 11 17 14 3 0
2 19 21 9 11 17 16 5 0
2 19 21 9 11 26 25 5 0
2 19 21 9 11 31 30 5 0
2 19 21 15 12 7 8 3 0
2 19 21 15 12 7 10 5 0
2 19 21 15 12 7 11 6 0
2 19 21 15 12 25 30 3 0
2 19 21 15 12 26 31 3 0
2 19 21 15 14 8 10 5 0
2 19 21 15 14 8 11 6 0
2 19 21 15 16 10 8 3 0
2 19 21 15 16 10 11 6 0
2 19 21 15 16 25 26 6 0
2 19 21 15 16 30 31 6 0
2 19 21 15 17 11 8 3 0
2 19 21 15 17 11 10 5 0
2 19 21 15 17 26 25 5 0
2 19 21 15 17 31 30 5 0
2 19 21 24 7 8 30 5 0
2 19 21 24 7 8 31 6 0
2 19 21 24 7 10 30 3 0
2 19 21 24 7 11 31 3 0
2 19 21 24 12 14 30 5 0
2 19 21 24 12 14 31 6 0
2 19 21 24 12 16 30 3 0
2 19 21 24 12 17 31 3 0
2 19 21 24 25 10 8 3 0
2 19 21 24 25 10 11 6 0
2 19 21 24 25 16 14 3 0
2 19 21 24 25 16 17 6 0
2 19 21 24 25 30 31 6 0
2 19 21 24 26 11 8 3 0
2 19 21 24 26 11 10 5 0
2 19 21 24 26 17 14 3 0
2 19 21 24 26 17 16 5 0
2 19 21 24 26 31 30 5 0
2 19 22 10 7 12 14 3 0
2 19 22 10 7 12 15 4 0
2 19 22 10 7 12 17 6 0
2 19 22 10 7 26 31 3 0
2 19 22 10 8 14 15 4 0
2 19 22 10 8 14 17 6 0
2 19 22 10 9 15 14 3 0
2 19 22 10 9 15 17 6 0
2 19 22 10 9 24 26 6 0
2 19 22 10 11 17 14 3 0
2 19 22 10 11 17 15 4 0
2 19 22 10 11 26 24 4 0
2 19 22 16 12 7 8 3 0
2 19 22 16 12 7 9 4 0
2 19 22 16 12 7 11 6 0
2 19 22 16 12 26 31 3 0
2 19 22 16 14 8 9 4 0
2 19 22 16 14 8 11 6 0
2 19 22 16 15 9 8 3 0
2 19 22 16 15 9 11 6 0
2 19 22 16 15 24 26 6 0
2 19 22 16 17 11 8 3 0
2 19 22 16 17 11 9 4 0
2 19 22 16 17 26 24 4 0
2 19 22 25 7 8 31 6 0
2 19 22 25 7 11 31 3 0
2 19 22 25 12 14 31 6 0
2 19 22 25 12 17 31 3 0
2 19 22 25 24 9 8 3 0
2 19 22 25 24 9 11 6 0
2 19 22 25 24 15 14 3 0
2 19 22 25 24 15 17 6 0
2 19 22 25 26 11 8 3 0
2 19 22 25 26 11 9 4 0
2 19 22 25 26 17 14 3 0
2 19 22 25 26 17 15 4 0
2 19 22 30 8 7 24 4 0
2 19 22 30 8 7 26 6 0
2 19 22 30 14 12 24 4 0
2 19 22 30 14 12 26 6 0
2 19 22 30 31 11 9 4 0
2 19 22 30 31 17 15 4 0
2 19 22 30 31 26 24 4 0
2 19 23 11 7 12 14 3 0
2 19 23 11 7 12 15 4 0
2 19 23 11 7 12 16 5 0
2 19 23 11 7 25 30 3 0
2 19 23 11 8 14 15 4 0
2 19 23 11 8 14 16 5 0
2 19 23 11 9 15 14 3 0
2 19 23 11 9 15 16 5 0
2 19 23 11 9 24 25 5 0
2 19 23 11 10 16 14 3 0
2 19 23 11 10 16 15 4 0
2 19 23 11 10 25 24 4 0
2 19 23 17 12 7 8 3 0
2 19 23 17 12 7 9 4 0
2 19 23 17 12 7 10 5 0
2 19 23 17 12 25 30 3 0
2 19 23 17 14 8 9 4 0
2 19 23 17 14 8 10 5 0
2 19 23 17 15 9 8 3 0
2 19 23 17 15 9 10 5 0
2 19 23 17 15 24 25 5 0
2 19 23 17 16 10 8 3 0
2 19 23 17 16 10 9 4 0
2 19 23 17 16 25 24 4 0
2 19 23 26 7 8 30 5 0
2 19 23 26 7 10 30 3 0
2 19 23 26 12 14 30 5 0
2 19 23 26 12 16 30 3 0
2 19 23 26 24 9 8 3 0
2 19 23 26 24 9 10 5 0
2 19 23 26 24 15 14 3 0
2 19 23 26 24 15 16 5 0
2 19 23 26 25 10 8 3 0
2 19 23 26 25 10 9 4 0
2 19 23 26 25 16 14 3 0
2 19 23 26 25 16 15 4 0
2 19 23 31 8 7 24 4 0
2 19 23 31 8 7 25 5 0
2 19 23 31 14 12 24 4 0
2 19 23 31 14 12 25 5 0
2 19 23 31 30 10 9 4 0
2 19 23 31 30 16 15 4 0
2 19 23 31 30 25 24 4 0
2 27 9 7 12 14 30 5 0
2 27 9 7 12 14 31 6 0
2 27 9 7 12 16 30 3 0
2 27 9 7 12 17 31 3 0
2 27 9 7 18 20 30 5 0
2 27 9 7 18 20 31 6 0
2 27 9 7 18 22 30 3 0
2 27 9 7 18 23 31 3 0
2 27 9 7 25 16 14 3 0
2 27 9 7 25 16 17 6 0
2 27 9 7 25 22 20 3 0
2 27 9 7 25 22 23 6 0
2 27 9 7 25 30 31 6 0
2 27 9 7 26 17 14 3 0
2 27 9 7 26 17 16 5 0
2 27 9 7 26 23 20 3 0
2 27 9 7 26 23 22 5 0
2 27 9 7 26 31 30 5 0
2 27 9 8 14 12 25 5 0
2 27 9 8 14 12 26 6 0
2 27 9 8 20 18 25 5 0
2 27 9 8 20 18 26 6 0
2 27 9 8 30 16 17 6 0
2 27 9 8 30 22 23 6 0
2 27 9 8 30 25 26 6 0
2 27 9 8 31 17 16 5 0
2 27 9 8 31 23 22 5 0
2 27 9 8 31 26 25 5 0
2 27 9 10 16 12 26 6 0
2 27 9 10 16 14 31 6 0
2 27 9 10 16 17 31 3 0
2 27 9 10 22 18 26 6 0
2 27 9 10 22 20 31 6 0
2 27 9 10 22 23 31 3 0
2 27 9 10 25 12 14 3 0
2 27 9 10 25 12 17 6 0
2 27 9 10 25 18 20 3 0
2 27 9 10 25 18 23 6 0
2 27 9 10 25 26 31 3 0
2 27 9 10 30 14 17 6 0
2 27 9 10 30 20 23 6 0
2 27 9 11 17 12 25 5 0
2 27 9 11 17 14 30 5 0
2 27 9 11 17 16 30 3 0
2 27 9 11 23 18 25 5 0
2 27 9 11 23 20 30 5 0
2 27 9 11 23 22 30 3 0
2 27 9 11 26 12 14 3 0
2 27 9 11 26 12 16 5 0
2 27 9 11 26 18 20 3 0
2 27 9 11 26 18 22 5 0
2 27 9 11 26 25 30 3 0
2 27 9 11 31 14 16 5 0
2 27 9 11 31 20 22 5 0
2 27 15 12 7 8 30 5 0
2 27 15 12 7 8 31 6 0
2 27 15 12 7 10 30 3 0
2 27 15 12 7 11 31 3 0
2 27 15 12 18 20 30 5 0
2 27 15 12 18 20 31 6 0
2 27 15 12 18 22 30 3 0
2 27 15 12 18 23 31 3 0
2 27 15 12 25 10 8 3 0
2 27 15 12 25 10 11 6 0
2 27 15 12 25 22 20 3 0
2 27 15 12 25 22 23 6 0
2 27 15 12 25 30 31 6 0
2 27 15 12 26 11 8 3 0
2 27 15 12 26 11 10 5 0
2 27 15 12 26 23 20 3 0
2 27 15 12 26 23 22 5 0
2 27 15 12 26 31 30 5 0
2 27 15 14 8 7 25 5 0
2 27 15 14 8 7 26 6 0
2 27 15 14 20 18 25 5 0
2 27 15 14 20 18 26 6 0
2 27 15 14 30 10 11 6 0
2 27 15 14 30 22 23 6 0
2 27 15 14 30 25 26 6 0
2 27 15 14 31 11 10 5 0
2 27 15 14 31 23 22 5 0
2 27 15 14 31 26 25 5 0
2 27 15 16 10 7 26 6 0
2 27 15 16 10 8 31 6 0
2 27 15 16 10 11 31 3 0
2 27 15 16 22 18 26 6 0
2 27 15 16 22 20 31 6 0
2 27 15 16 22 23 31 3 0
2 27 15 16 25 7 8 3 0
2 27 15 16 25 7 11 6 0
2 27 15 16 25 18 20 3 0
2 27 15 16 25 18 23 6 0
2 27 15 16 25 26 31 3 0
2 27 15 16 30 8 11 6 0
2 27 15 16 30 20 23 6 0
2 27 15 17 11 7 25 5 0
2 27 15 17 11 8 30 5 0
2 27 15 17 11 10 30 3 0
2 27 15 17 23 18 25 5 0
2 27 15 17 23 20 30 5 0
2 27 15 17 23 22 30 3 0
2 27 15 17 26 7 8 3 0
2 27 15 17 26 7 10 5 0
2 27 15 17 26 18 20 3 0
2 27 15 17 26 18 22 5 0
2 27 15 17 26 25 30 3 0
2 27 15 17 31 8 10 5 0
2 27 15 17 31 20 22 5 0
2 27 21 18 7 8 30 5 0
2 27 21 18 7 8 31 6 0
2 27 21 18 7 10 30 3 0
2 27 21 18 7 11 31 3 0
2 27 21 18 12 14 30 5 0
2 27 21 18 12 14 31 6 0
2 27 21 18 12 16 30 3 0
2 27 21 18 12 17 31 3 0
2 27 21 18 25 10 8 3 0
2 27 21 18 25 10 11 6 0
2 27 21 18 25 16 14 3 0
2 27 21 18 25 16 17 6 0
2 27 21 18 25 30 31 6 0
2 27 21 18 26 11 8 3 0
2 27 21 18 26 11 10 5 0
2 27 21 18 26 17 14 3 0
2 27 21 18 26 17 16 5 0
2 27 21 18 26 31 30 5 0
2 27 21 20 8 7 25 5 0
2 27 21 20 8 7 26 6 0
2 27 21 20 14 12 25 5 0
2 27 21 20 14 12 26 6 0
2 27 21 20 30 10 11 6 0
2 27 21 20 30 16 17 6 0
2 27 21 20 30 25 26 6 0
2 27 21 20 31 11 10 5 0
2 27 21 20 31 17 16 5 0
2 27 21 20 31 26 25 5 0
2 27 21 22 10 7 26 6 0
2 27 21 22 10 8 31 6 0
2 27 21 22 10 11 31 3 0
2 27 21 22 16 12 26 6 0
2 27 21 22 16 14 31 6 0
2 27 21 22 16 17 31 3 0
2 27 21 22 25 7 8 3 0
2 27 21 22 25 7 11 6 0
2 27 21 22 25 12 14 3 0
2 27 21 22 25 12 17 6 0
2 27 21 22 25 26 31 3 0
2 27 21 22 30 8 11 6 0
2 27 21 22 30 14 17 6 0
2 27 21 23 11 7 25 5 0
2 27 21 23 11 8 30 5 0
2 27 21 23 11 10 30 3 0
2 27 21 23 17 12 25 5 0
2 27 21 23 17 14 30 5 0
2 27 21 23 17 16 30 3 0
2 27 21 23 26 7 8 3 0
2 27 21 23 26 7 10 5 0
2 27 21 23 26 12 14 3 0
2 27 21 23 26 12 16 5 0
2 27 21 23 26 25 30 3 0
2 27 21 23 31 8 10 5 0
2 27 21 23 31 14 16 5 0
2 27 24 7 8 14 16 5 0
2 27 24 7 8 14 17 6 0
2 27 24 7 8 20 22 5 0
2 27 24 7 8 20 23 6 0
2 27 24 7 10 16 14 3 0
2 27 24 7 10 16 17 6 0
2 27 24 7 10 22 20 3 0
2 27 24 7 10 22 23 6 0
2 27 24 7 10 30 31 6 0
2 27 24 7 11 17 14 3 0
2 27 24 7 11 17 16 5 0
2 27 24 7 11 23 20 3 0
2 27 24 7 11 23 22 5 0
2 27 24 7 11 31 30 5 0
2 27 24 12 14 8 10 5 0
2 27 24 12 14 8 11 6 0
2 27 24 12 14 20 22 5 0
2 27 24 12 14 20 23 6 0
2 27 24 12 16 10 8 3 0
2 27 24 12 16 10 11 6 0
2 27 24 12 16 22 20 3 0
2 27 24 12 16 22 23 6 0
2 27 24 12 16 30 31 6 0
2 27 24 12 17 11 8 3 0
2 27 24 12 17 11 10 5 0
2 27 24 12 17 23 20 3 0
2 27 24 12 17 23 22 5 0
2 27 24 12 17 31 30 5 0
2 27 24 18 20 8 10 5 0
2 27 24 18 20 8 11 6 0
2 27 24 18 20 14 16 5 0
2 27 24 18 20 14 17 6 0
2 27 24 18 22 10 8 3 0
2 27 24 18 22 10 11 6 0
2 27 24 18 22 16 14 3 0
2 27 24 18 22 16 17 6 0
2 27 24 18 22 30 31 6 0
2 27 24 18 23 11 8 3 0
2 27 24 18 23 11 10 5 0
2 27 24 18 23 17 14 3 0
2 27 24 18 23 17 16 5 0
2 27 24 18 23 31 30 5 0
2 27 24 25 10 8 31 6 0
2 27 24 25 10 11 31 3 0
2 27 24 25 16 14 31 6 0
2 27 24 25 16 17 31 3 0
2 27 24 25 22 20 31 6 0
2 27 24 25 22 23 31 3 0
2 27 24 25 30 8 11 6 0
2 27 24 25 30 14 17 6 0
2 27 24 25 30 20 23 6 0
2 27 24 26 11 8 30 5 0
2 27 24 26 11 10 30 3 0
2 27 24 26 17 14 30 5 0
2 27 24 26 17 16 30 3 0
2 27 24 26 23 20 30 5 0
2 27 24 26 23 22 30 3 0
2 27 24 26 31 8 10 5 0
2 27 24 26 31 14 16 5 0
2 27 24 26 31 20 22 5 0
2 28 10 7 12 14 31 6 0
2 28 10 7 12 17 31 3 0
2 28 10 7 18 20 31 6 0
2 28 10 7 18 23 31 3 0
2 28 10 7 24 15 14 3 0
2 28 10 7 24 15 17 6 0
2 28 10 7 24 21 20 3 0
2 28 10 7 24 21 23 6 0
2 28 10 7 26 17 14 3 0
2 28 10 7 26 17 15 4 0
2 28 10 7 26 23 20 3 0
2 28 10 7 26 23 21 4 0
2 28 10 8 14 12 24 4 0
2 28 10 8 14 12 26 6 0
2 28 10 8 20 18 24 4 0
2 28 10 8 20 18 26 6 0
2 28 10 8 31 17 15 4 0
2 28 10 8 31 23 21 4 0
2 28 10 8 31 26 24 4 0
2 28 10 9 15 12 26 6 0
2 28 10 9 15 14 31 6 0
2 28 10 9 15 17 31 3 0
2 28 10 9 21 18 26 6 0
2 28 10 9 21 20 31 6 0
2 28 10 9 21 23 31 3 0
2 28 10 9 24 12 14 3 0
2 28 10 9 24 12 17 6 0
2 28 10 9 24 18 20 3 0
2 28 10 9 24 18 23 6 0
2 28 10 9 24 26 31 3 0
2 28 10 11 17 12 24 4 0
2 28 10 11 23 18 24 4 0
2 28 10 11 26 12 14 3 0
2 28 10 11 26 12 15 4 0
2 28 10 11 26 18 20 3 0
2 28 10 11 26 18 21 4 0
2 28 10 11 31 14 15 4 0
2 28 10 11 31 20 21 4 0
2 28 16 12 7 8 31 6 0
2 28 16 12 7 11 31 3 0
2 28 16 12 18 20 31 6 0
2 28 16 12 18 23 31 3 0
2 28 16 12 24 9 8 3 0
2 28 16 12 24 9 11 6 0
2 28 16 12 24 21 20 3 0
2 28 16 12 24 21 23 6 0
2 28 16 12 26 11 8 3 0
2 28 16 12 26 11 9 4 0
2 28 16 12 26 23 20 3 0
2 28 16 12 26 23 21 4 0
2 28 16 14 8 7 24 4 0
2 28 16 14 8 7 26 6 0
2 28 16 14 20 18 24 4 0
2 28 16 14 20 18 26 6 0
2 28 16 14 31 11 9 4 0
2 28 16 14 31 23 21 4 0
2 28 16 14 31 26 24 4 0
2 28 16 15 9 7 26 6 0
2 28 16 15 9 8 31 6 0
2 28 16 15 9 11 31 3 0
2 28 16 15 21 18 26 6 0
2 28 16 15 21 20 31 6 0
2 28 16 15 21 23 31 3 0
2 28 16 15 24 7 8 3 0
2 28 16 15 24 7 11 6 0
2 28 16 15 24 18 20 3 0
2 28 16 15 24 18 23 6 0
2 28 16 15 24 26 31 3 0
2 28 16 17 11 7 24 4 0
2 28 16 17 23 18 24 4 0
2 28 16 17 26 7 8 3 0
2 28 16 17 26 7 9 4 0
2 28 16 17 26 18 20 3 0
2 28 16 17 26 18 21 4 0
2 28 16 17 31 8 9 4 0
2 28 16 17 31 20 21 4 0
2 28 22 18 7 8 31 6 0
2 28 22 18 7 11 31 3 0
2 28 22 18 12 14 31 6 0
2 28 22 18 12 17 31 3 0
2 28 22 18 24 9 8 3 0
2 28 22 18 24 9 11 6 0
2 28 22 18 24 15 14 3 0
2 28 22 18 24 15 17 6 0
2 28 22 18 26 11 8 3 0
2 28 22 18 26 11 9 4 0
2 28 22 18 26 17 14 3 0
2 28 22 18 26 17 15 4 0
2 28 22 20 8 7 24 4 0
2 28 22 20 8 7 26 6 0
2 28 22 20 14 12 24 4 0
2 28 22 20 14 12 26 6 0
2 28 22 20 31 11 9 4 0
2 28 22 20 31 17 15 4 0
2 28 22 20 31 26 24 4 0
2 28 22 21 9 7 26 6 0
2 28 22 21 9 8 31 6 0
2 28 22 21 9 11 31 3 0
2 28 22 21 15 12 26 6 0
2 28 22 21 15 14 31 6 0
2 28 22 21 15 17 31 3 0
2 28 22 21 24 7 8 3 0
2 28 22 21 24 7 11 6 0
2 28 22 21 24 12 14 3 0
2 28 22 21 24 12 17 6 0
2 28 22 21 24 26 31 3 0
2 28 22 23 11 7 24 4 0
2 28 22 23 17 12 24 4 0
2 28 22 23 26 7 8 3 0
2 28 22 23 26 7 9 4 0
2 28 22 23 26 12 14 3 0
2 28 22 23 26 12 15 4 0
2 28 22 23 31 8 9 4 0
2 28 22 23 31 14 15 4 0
2 28 25 7 8 14 15 4 0
2 28 25 7 8 14 17 6 0
2 28 25 7 8 20 21 4 0
2 28 25 7 8 20 23 6 0
2 28 25 7 9 15 14 3 0
2 28 25 7 9 15 17 6 0
2 28 25 7 9 21 20 3 0
2 28 25 7 9 21 23 6 0
2 28 25 7 11 17 14 3 0
2 28 25 7 11 17 15 4 0
2 28 25 7 11 23 20 3 0
2 28 25 7 11 23 21 4 0
2 28 25 12 14 8 9 4 0
2 28 25 12 14 8 11 6 0
2 28 25 12 14 20 21 4 0
2 28 25 12 14 20 23 6 0
2 28 25 12 15 9 8 3 0
2 28 25 12 15 9 11 6 0
2 28 25 12 15 21 20 3 0
2 28 25 12 15 21 23 6 0
2 28 25 12 17 11 8 3 0
2 28 25 12 17 11 9 4 0
2 28 25 12 17 23 20 3 0
2 28 25 12 17 23 21 4 0
2 28 25 18 20 8 9 4 0
2 28 25 18 20 8 11 6 0
2 28 25 18 20 14 15 4 0
2 28 25 18 20 14 17 6 0
2 28 25 18 21 9 8 3 0
2 28 25 18 21 9 11 6 0
2 28 25 18 21 15 14 3 0
2 28 25 18 21 15 17 6 0
2 28 25 18 23 11 8 3 0
2 28 25 18 23 11 9 4 0
2 28 25 18 23 17 14 3 0
2 28 25 18 23 17 15 4 0
2 28 25 24 9 8 31 6 0
2 28 25 24 9 11 31 3 0
2 28 25 24 15 14 31 6 0
2 28 25 24 15 17 31 3 0
2 28 25 24 21 20 31 6 0
2 28 25 24 21 23 31 3 0
2 28 25 26 31 8 9 4 0
2 28 25 26 31 14 15 4 0
2 28 25 26 31 20 21 4 0
2 28 30 8 7 12 15 4 0
2 28 30 8 7 12 17 6 0
2 28 30 8 7 18 21 4 0
2 28 30 8 7 18 23 6 0
2 28 30 8 9 15 17 6 0
2 28 30 8 9 21 23 6 0
2 28 30 8 9 24 26 6 0
2 28 30 8 11 17 15 4 0
2 28 30 8 11 23 21 4 0
2 28 30 8 11 26 24 4 0
2 28 30 14 12 7 9 4 0
2 28 30 14 12 7 11 6 0
2 28 30 14 12 18 21 4 0
2 28 30 14 12 18 23 6 0
2 28 30 14 15 9 11 6 0
2 28 30 14 15 21 23 6 0
2 28 30 14 15 24 26 6 0
2 28 30 14 17 11 9 4 0
2 28 30 14 17 23 21 4 0
2 28 30 14 17 26 24 4 0
2 28 30 20 18 7 9 4 0
2 28 30 20 18 7 11 6 0
2 28 30 20 18 12 15 4 0
2 28 30 20 18 12 17 6 0
2 28 30 20 21 9 11 6 0
2 28 30 20 21 15 17 6 0
2 28 30 20 21 24 26 6 0
2 28 30 20 23 11 9 4 0
2 28 30 20 23 17 15 4 0
2 28 30 20 23 26 24 4 0
2 28 30 31 11 7 24 4 0
2 28 30 31 17 12 24 4 0
2 28 30 31 23 18 24 4 0
2 28 30 31 26 7 9 4 0
2 28 30 31 26 12 15 4 0
2 28 30 31 26 18 21 4 0
2 29 11 7 12 14 30 5 0
2 29 11 7 12 16 30 3 0
2 29 11 7 18 20 30 5 0
2 29 11 7 18 22 30 3 0
2 29 11 7 24 15 14 3 0
2 29 11 7 24 15 16 5 0
2 29 11 7 24 21 20 3 0
2 29 11 7 24 21 22 5 0
2 29 11 7 25 16 14 3 0
2 29 11 7 25 16 15 4 0
2 29 11 7 25 22 20 3 0
2 29 11 7 25 22 21 4 0
2 29 11 8 14 12 24 4 0
2 29 11 8 14 12 25 5 0
2 29 11 8 20 18 24 4 0
2 29 11 8 20 18 25 5 0
2 29 11 8 30 16 15 4 0
2 29 11 8 30 22 21 4 0
2 29 11 8 30 25 24 4 0
2 29 11 9 15 12 25 5 0
2 29 11 9 15 14 30 5 0
2 29 11 9 15 16 30 3 0
2 29 11 9 21 18 25 5 0
2 29 11 9 21 20 30 5 0
2 29 11 9 21 22 30 3 0
2 29 11 9 24 12 14 3 0
2 29 11 9 24 12 16 5 0
2 29 11 9 24 18 20 3 0
2 29 11 9 24 18 22 5 0
2 29 11 9 24 25 30 3 0
2 29 11 10 16 12 24 4 0
2 29 11 10 22 18 24 4 0
2 29 11 10 25 12 14 3 0
2 29 11 10 25 12 15 4 0
2 29 11 10 25 18 20 3 0
2 29 11 10 25 18 21 4 0
2 29 11 10 30 14 15 4 0
2 29 11 10 30 20 21 4 0
2 29 17 12 7 8 30 5 0
2 29 17 12 7 10 30 3 0
2 29 17 12 18 20 30 5 0
2 29 17 12 18 22 30 3 0
2 29 17 12 24 9 8 3 0
2 29 17 12 24 9 10 5 0
2 29 17 12 24 21 20 3 0
2 29 17 12 24 21 22 5 0
2 29 17 12 25 10 8 3 0
2 29 17 12 25 10 9 4 0
2 29 17 12 25 22 20 3 0
2 29 17 12 25 22 21 4 0
2 29 17 14 8 7 24 4 0
2 29 17 14 8 7 25 5 0
2 29 17 14 20 18 24 4 0
2 29 17 14 20 18 25 5 0
2 29 17 14 30 10 9 4 0
2 29 17 14 30 22 21 4 0
2 29 17 14 30 25 24 4 0
2 29 17 15 9 7 25 5 0
2 29 17 15 9 8 30 5 0
2 29 17 15 9 10 30 3 0
2 29 17 15 21 18 25 5 0
2 29 17 15 21 20 30 5 0
2 29 17 15 21 22 30 3 0
2 29 17 15 24 7 8 3 0
2 29 17 15 24 7 10 5 0
2 29 17 15 24 18 20 3 0
2 29 17 15 24 18 22 5 0
2 29 17 15 24 25 30 3 0
2 29 17 16 10 7 24 4 0
2 29 17 16 22 18 24 4 0
2 29 17 16 25 7 8 3 0
2 29 17 16 25 7 9 4 0
2 29 17 16 25 18 20 3 0
2 29 17 16 25 18 21 4 0
2 29 17 16 30 8 9 4 0
2 29 17 16 30 20 21 4 0
2 29 23 18 7 8 30 5 0
2 29 23 18 7 10 30 3 0
2 29 23 18 12 14 30 5 0
2 29 23 18 12 16 30 3 0
2 29 23 18 24 9 8 3 0
2 29 23 18 24 9 10 5 0
2 29 23 18 24 15 14 3 0
2 29 23 18 24 15 16 5 0
2 29 23 18 25 10 8 3 0
2 29 23 18 25 10 9 4 0
2 29 23 18 25 16 14 3 0
2 29 23 18 25 16 15 4 0
2 29 23 20 8 7 24 4 0
2 29 23 20 8 7 25 5 0
2 29 23 20 14 12 24 4 0
2 29 23 20 14 12 25 5 0
2 29 23 20 30 10 9 4 0
2 29 23 20 30 16 15 4 0
2 29 23 20 30 25 24 4 0
2 29 23 21 9 7 25 5 0
2 29 23 21 9 8 30 5 0
2 29 23 21 9 10 30 3 0
2 29 23 21 15 12 25 5 0
2 29 23 21 15 14 30 5 0
2 29 23 21 15 16 30 3 0
2 29 23 21 24 7 8 3 0
2 29 23 21 24 7 10 5 0
2 29 23 21 24 12 14 3 0
2 29 23 21 24 12 16 5 0
2 29 23 21 24 25 30 3 0
2 29 23 22 10 7 24 4 0
2 29 23 22 16 12 24 4 0
2 29 23 22 25 7 8 3 0
2 29 23 22 25 7 9 4 0
2 29 23 22 25 12 14 3 0
2 29 23 22 25 12 15 4 0
2 29 23 22 30 8 9 4 0
2 29 23 22 30 14 15 4 0
2 29 26 7 8 14 15 4 0
2 29 26 7 8 14 16 5 0
2 29 26 7 8 20 21 4 0
2 29 26 7 8 20 22 5 0
2 29 26 7 9 15 14 3 0
2 29 26 7 9 15 16 5 0
2 29 26 7 9 21 20 3 0
2 29 26 7 9 21 22 5 0
2 29 26 7 10 16 14 3 0
2 29 26 7 10 16 15 4 0
2 29 26 7 10 22 20 3 0
2 29 26 7 10 22 21 4 0
2 29 26 12 14 8 9 4 0
2 29 26 12 14 8 10 5 0
2 29 26 12 14 20 21 4 0
2 29 26 12 14 20 22 5 0
2 29 26 12 15 9 8 3 0
2 29 26 12 15 9 10 5 0
2 29 26 12 15 21 20 3 0
2 29 26 12 15 21 22 5 0
2 29 26 12 16 10 8 3 0
2 29 26 12 16 10 9 4 0
2 29 26 12 16 22 20 3 0
2 29 26 12 16 22 21 4 0
2 29 26 18 20 8 9 4 0
2 29 26 18 20 8 10 5 0
2 29 26 18 20 14 15 4 0
2 29 26 18 20 14 16 5 0
2 29 26 18 21 9 8 3 0
2 29 26 18 21 9 10 5 0
2 29 26 18 21 15 14 3 0
2 29 26 18 21 15 16 5 0
2 29 26 18 22 10 8 3 0
2 29 26 18 22 10 9 4 0
2 29 26 18 22 16 14 3 0
2 29 26 18 22 16 15 4 0
2 29 26 24 9 8 30 5 0
2 29 26 24 9 10 30 3 0
2 29 26 24 15 14 30 5 0
2 29 26 24 15 16 30 3 0
2 29 26 24 21 20 30 5 0
2 29 26 24 21 22 30 3 0
2 29 26 25 30 8 9 4 0
2 29 26 25 30 14 15 4 0
2 29 26 25 30 20 21 4 0
2 29 31 8 7 12 15 4 0
2 29 31 8 7 12 16 5 0
2 29 31 8 7 18 21 4 0
2 29 31 8 7 18 22 5 0
2 29 31 8 9 15 16 5 0
2 29 31 8 9 21 22 5 0
2 29 31 8 9 24 25 5 0
2 29 31 8 10 16 15 4 0
2 29 31 8 10 22 21 4 0
2 29 31 8 10 25 24 4 0
2 29 31 14 12 7 9 4 0
2 29 31 14 12 7 10 5 0
2 29 31 14 12 18 21 4 0
2 29 31 14 12 18 22 5 0
2 29 31 14 15 9 10 5 0
2 29 31 14 15 21 22 5 0
2 29 31 14 15 24 25 5 0
2 29 31 14 16 10 9 4 0
2 29 31 14 16 22 21 4 0
2 29 31 14 16 25 24 4 0
2 29 31 20 18 7 9 4 0
2 29 31 20 18 7 10 5 0
2 29 31 20 18 12 15 4 0
2 29 31 20 18 12 16 5 0
2 29 31 20 21 9 10 5 0
2 29 31 20 21 15 16 5 0
2 29 31 20 21 24 25 5 0
2 29 31 20 22 10 9 4 0
2 29 31 20 22 16 15 4 0
2 29 31 20 22 25 24 4 0
2 29 31 30 10 7 24 4 0
2 29 31 30 16 12 24 4 0
2 29 31 30 22 18 24 4 0
2 29 31 30 25 7 9 4 0
2 29 31 30 25 12 15 4 0
2 29 31 30 25 18 21 4 0
3 8 7 12 13 19 21 4 0
3 8 7 12 13 19 22 5 0
3 8 7 12 13 19 23 6 0
3 8 7 12 15 21 22 5 0
3 8 7 12 15 21 23 6 0
3 8 7 12 15 27 28 5 0
3 8 7 12 15 27 29 6 0
3 8 7 12 16 22 21 4 0
3 8 7 12 16 22 23 6 0
3 8 7 12 16 28 27 4 0
3 8 7 12 16 28 29 6 0
3 8 7 12 17 23 21 4 0
3 8 7 12 17 23 22 5 0
3 8 7 12 17 29 27 4 0
3 8 7 12 17 29 28 5 0
3 8 7 18 19 13 15 4 0
3 8 7 18 19 13 16 5 0
3 8 7 18 19 13 17 6 0
3 8 7 18 21 15 16 5 0
3 8 7 18 21 15 17 6 0
3 8 7 18 21 27 28 5 0
3 8 7 18 21 27 29 6 0
3 8 7 18 22 16 15 4 0
3 8 7 18 22 16 17 6 0
3 8 7 18 22 28 27 4 0
3 8 7 18 22 28 29 6 0
3 8 7 18 23 17 15 4 0
3 8 7 18 23 17 16 5 0
3 8 7 18 23 29 27 4 0
3 8 7 18 23 29 28 5 0
3 8 7 24 15 13 28 5 0
3 8 7 24 15 13 29 6 0
3 8 7 24 21 19 28 5 0
3 8 7 24 21 19 29 6 0
3 8 7 24 27 13 16 5 0
3 8 7 24 27 13 17 6 0
3 8 7 24 27 19 22 5 0
3 8 7 24 27 19 23 6 0
3 8 7 25 16 13 27 4 0
3 8 7 25 16 13 29 6 0
3 8 7 25 22 19 27 4 0
3 8 7 25 22 19 29 6 0
3 8 7 25 28 13 15 4 0
3 8 7 25 28 13 17 6 0
3 8 7 25 28 19 21 4 0
3 8 7 25 28 19 23 6 0
3 8 7 26 17 13 27 4 0
3 8 7 26 17 13 28 5 0
3 8 7 26 23 19 27 4 0
3 8 7 26 23 19 28 5 0
3 8 7 26 29 13 15 4 0
3 8 7 26 29 13 16 5 0
3 8 7 26 29 19 21 4 0
3 8 7 26 29 19 22 5 0
3 8 9 15 12 18 22 5 0
3 8 9 15 12 18 23 6 0
3 8 9 15 13 19 22 5 0
3 8 9 15 13 19 23 6 0
3 8 9 15 16 22 23 6 0
3 8 9 15 16 25 26 6 0
3 8 9 15 16 28 29 6 0
3 8 9 15 17 23 22 5 0
3 8 9 15 17 26 25 5 0
3 8 9 15 17 29 28 5 0
3 8 9 21 18 12 16 5 0
3 8 9 21 18 12 17 6 0
3 8 9 21 19 13 16 5 0
3 8 9 21 19 13 17 6 0
3 8 9 21 22 16 17 6 0
3 8 9 21 22 25 26 6 0
3 8 9 21 22 28 29 6 0
3 8 9 21 23 17 16 5 0
3 8 9 21 23 26 25 5 0
3 8 9 21 23 29 28 5 0
3 8 9 24 12 13 28 5 0
3 8 9 24 12 13 29 6 0
3 8 9 24 18 19 28 5 0
3 8 9 24 18 19 29 6 0
3 8 9 24 25 16 17 6 0
3 8 9 24 25 22 23 6 0
3 8 9 24 25 28 29 6 0
3 8 9 24 26 17 16 5 0
3 8 9 24 26 23 22 5 0
3 8 9 24 26 29 28 5 0
3 8 9 27 13 12 25 5 0
3 8 9 27 13 12 26 6 0
3 8 9 27 19 18 25 5 0
3 8 9 27 19 18 26 6 0
3 8 9 27 28 16 17 6 0
3 8 9 27 28 22 23 6 0
3 8 9 27 28 25 26 6 0
3 8 9 27 29 17 16 5 0
3 8 9 27 29 23 22 5 0
3 8 9 27 29 26 25 5 0
3 8 10 16 12 18 21 4 0
3 8 10 16 12 18 23 6 0
3 8 10 16 13 19 21 4 0
3 8 10 16 13 19 23 6 0
3 8 10 16 15 21 23 6 0
3 8 10 16 15 24 26 6 0
3 8 10 16 15 27 29 6 0
3 8 10 16 17 23 21 4 0
3 8 10 16 17 26 24 4 0
3 8 10 16 17 29 27 4 0
3 8 10 22 18 12 15 4 0
3 8 10 22 18 12 17 6 0
3 8 10 22 19 13 15 4 0
3 8 10 22 19 13 17 6 0
3 8 10 22 21 15 17 6 0
3 8 10 22 21 24 26 6 0
3 8 10 22 21 27 29 6 0
3 8 10 22 23 17 15 4 0
3 8 10 22 23 26 24 4 0
3 8 10 22 23 29 27 4 0
3 8 10 25 12 13 27 4 0
3 8 10 25 12 13 29 6 0
3 8 10 25 18 19 27 4 0
3 8 10 25 18 19 29 6 0
3 8 10 25 24 15 17 6 0
3 8 10 25 24 21 23 6 0
3 8 10 25 24 27 29 6 0
3 8 10 25 26 17 15 4 0
3 8 10 25 26 23 21 4 0
3 8 10 25 26 29 27 4 0
3 8 10 28 13 12 24 4 0
3 8 10 28 13 12 26 6 0
3 8 10 28 19 18 24 4 0
3 8 10 28 19 18 26 6 0
3 8 10 28 27 15 17 6 0
3 8 10 28 27 21 23 6 0
3 8 10 28 27 24 26 6 0
3 8 10 28 29 17 15 4 0
3 8 10 28 29 23 21 4 0
3 8 10 28 29 26 24 4 0
3 8 11 17 12 18 21 4 0
3 8 11 17 12 18 22 5 0
3 8 11 17 13 19 21 4 0
3 8 11 17 13 19 22 5 0
3 8 11 17 15 21 22 5 0
3 8 11 17 15 24 25 5 0
3 8 11 17 15 27 28 5 0
3 8 11 17 16 22 21 4 0
3 8 11 17 16 25 24 4 0
3 8 11 17 16 28 27 4 0
3 8 11 23 18 12 15 4 0
3 8 11 23 18 12 16 5 0
3 8 11 23 19 13 15 4 0
3 8 11 23 19 13 16 5 0
3 8 11 23 21 15 16 5 0
3 8 11 23 21 24 25 5 0
3 8 11 23 21 27 28 5 0
3 8 11 23 22 16 15 4 0
3 8 11 23 22 25 24 4 0
3 8 11 23 22 28 27 4 0
3 8 11 26 12 13 27 4 0
3 8 11 26 12 13 28 5 0
3 8 11 26 18 19 27 4 0
3 8 11 26 18 19 28 5 0
3 8 11 26 24 15 16 5 0
3 8 11 26 24 21 22 5 0
3 8 11 26 24 27 28 5 0
3 8 11 26 25 16 15 4 0
3 8 11 26 25 22 21 4 0
3 8 11 26 25 28 27 4 0
3 8 11 29 13 12 24 4 0
3 8 11 29 13 12 25 5 0
3 8 11 29 19 18 24 4 0
3 8 11 29 19 18 25 5 0
3 8 11 29 27 15 16 5 0
3 8 11 29 27 21 22 5 0
3 8 11 29 27 24 25 5 0
3 8 11 29 28 16 15 4 0
3 8 11 29 28 22 21 4 0
3 8 11 29 28 25 24 4 0
3 14 12 7 9 21 22 5 0
3 14 12 7 9 21 23 6 0
3 14 12 7 9 27 28 5 0
3 14 12 7 9 27 29 6 0
3 14 12 7 10 22 21 4 0
3 14 12 7 10 22 23 6 0
3 14 12 7 10 28 27 4 0
3 14 12 7 10 28 29 6 0
3 14 12 7 11 23 21 4 0
3 14 12 7 11 23 22 5 0
3 14 12 7 11 29 27 4 0
3 14 12 7 11 29 28 5 0
3 14 12 18 21 9 10 5 0
3 14 12 18 21 9 11 6 0
3 14 12 18 21 27 28 5 0
3 14 12 18 21 27 29 6 0
3 14 12 18 22 10 9 4 0
3 14 12 18 22 10 11 6 0
3 14 12 18 22 28 27 4 0
3 14 12 18 22 28 29 6 0
3 14 12 18 23 11 9 4 0
3 14 12 18 23 11 10 5 0
3 14 12 18 23 29 27 4 0
3 14 12 18 23 29 28 5 0
3 14 12 24 21 19 28 5 0
3 14 12 24 21 19 29 6 0
3 14 12 24 27 19 22 5 0
3 14 12 24 27 19 23 6 0
3 14 12 25 22 19 27 4 0
3 14 12 25 22 19 29 6 0
3 14 12 25 28 19 21 4 0
3 14 12 25 28 19 23 6 0
3 14 12 26 23 19 27 4 0
3 14 12 26 23 19 28 5 0
3 14 12 26 29 19 21 4 0
3 14 12 26 29 19 22 5 0
3 14 13 19 18 7 9 4 0
3 14 13 19 18 7 10 5 0
3 14 13 19 18 7 11 6 0
3 14 13 19 21 9 10 5 0
3 14 13 19 21 9 11 6 0
3 14 13 19 21 24 25 5 0
3 14 13 19 21 24 26 6 0
3 14 13 19 22 10 9 4 0
3 14 13 19 22 10 11 6 0
3 14 13 19 22 25 24 4 0
3 14 13 19 22 25 26 6 0
3 14 13 19 23 11 9 4 0
3 14 13 19 23 11 10 5 0
3 14 13 19 23 26 24 4 0
3 14 13 19 23 26 25 5 0
3 14 13 27 9 7 25 5 0
3 14 13 27 9 7 26 6 0
3 14 13 27 21 18 25 5 0
3 14 13 27 21 18 26 6 0
3 14 13 27 24 7 10 5 0
3 14 13 27 24 7 11 6 0
3 14 13 27 24 18 22 5 0
3 14 13 27 24 18 23 6 0
3 14 13 28 10 7 24 4 0
3 14 13 28 10 7 26 6 0
3 14 13 28 22 18 24 4 0
3 14 13 28 22 18 26 6 0
3 14 13 28 25 7 9 4 0
3 14 13 28 25 7 11 6 0
3 14 13 28 25 18 21 4 0
3 14 13 28 25 18 23 6 0
3 14 13 29 11 7 24 4 0
3 14 13 29 11 7 25 5 0
3 14 13 29 23 18 24 4 0
3 14 13 29 23 18 25 5 0
3 14 13 29 26 7 9 4 0
3 14 13 29 26 7 10 5 0
3 14 13 29 26 18 21 4 0
3 14 13 29 26 18 22 5 0
3 14 15 9 7 18 22 5 0
3 14 15 9 7 18 23 6 0
3 14 15 9 10 22 23 6 0
3 14 15 9 10 25 26 6 0
3 14 15 9 10 28 29 6 0
3 14 15 9 11 23 22 5 0
3 14 15 9 11 26 25 5 0
3 14 15 9 11 29 28 5 0
3 14 15 21 18 7 10 5 0
3 14 15 21 18 7 11 6 0
3 14 15 21 22 10 11 6 0
3 14 15 21 22 25 26 6 0
3 14 15 21 22 28 29 6 0
3 14 15 21 23 11 10 5 0
3 14 15 21 23 26 25 5 0
3 14 15 21 23 29 28 5 0
3 14 15 24 18 19 28 5 0
3 14 15 24 18 19 29 6 0
3 14 15 24 25 10 11 6 0
3 14 15 24 25 22 23 6 0
3 14 15 24 25 28 29 6 0
3 14 15 24 26 11 10 5 0
3 14 15 24 26 23 22 5 0
3 14 15 24 26 29 28 5 0
3 14 15 27 19 18 25 5 0
3 14 15 27 19 18 26 6 0
3 14 15 27 28 10 11 6 0
3 14 15 27 28 22 23 6 0
3 14 15 27 28 25 26 6 0
3 14 15 27 29 11 10 5 0
3 14 15 27 29 23 22 5 0
3 14 15 27 29 26 25 5 0
3 14 16 10 7 18 21 4 0
3 14 16 10 7 18 23 6 0
3 14 16 10 9 21 23 6 0
3 14 16 10 9 24 26 6 0
3 14 16 10 9 27 29 6 0
3 14 16 10 11 23 21 4 0
3 14 16 10 11 26 24 4 0
3 14 16 10 11 29 27 4 0
3 14 16 22 18 7 9 4 0
3 14 16 22 18 7 11 6 0
3 14 16 22 21 9 11 6 0
3 14 16 22 21 24 26 6 0
3 14 16 22 21 27 29 6 0
3 14 16 22 23 11 9 4 0
3 14 16 22 23 26 24 4 0
3 14 16 22 23 29 27 4 0
3 14 16 25 18 19 27 4 0
3 14 16 25 18 19 29 6 0
3 14 16 25 24 9 11 6 0
3 14 16 25 24 21 23 6 0
3 14 16 25 24 27 29 6 0
3 14 16 25 26 11 9 4 0
3 14 16 25 26 23 21 4 0
3 14 16 25 26 29 27 4 0
3 14 16 28 19 18 24 4 0
3 14 16 28 19 18 26 6 0
3 14 16 28 27 9 11 6 0
3 14 16 28 27 21 23 6 0
3 14 16 28 27 24 26 6 0
3 14 16 28 29 11 9 4 0
3 14 16 28 29 23 21 4 0
3 14 16 28 29 26 24 4 0
3 14 17 11 7 18 21 4 0
3 14 17 11 7 18 22 5 0
3 14 17 11 9 21 22 5 0
3 14 17 11 9 24 25 5 0
3 14 17 11 9 27 28 5 0
3 14 17 11 10 22 21 4 0
3 14 17 11 10 25 24 4 0
3 14 17 11 10 28 27 4 0
3 14 17 23 18 7 9 4 0
3 14 17 23 18 7 10 5 0
3 14 17 23 21 9 10 5 0
3 14 17 23 21 24 25 5 0
3 14 17 23 21 27 28 5 0
3 14 17 23 22 10 9 4 0
3 14 17 23 22 25 24 4 0
3 14 17 23 22 28 27 4 0
3 14 17 26 18 19 27 4 0
3 14 17 26 18 19 28 5 0
3 14 17 26 24 9 10 5 0
3 14 17 26 24 21 22 5 0
3 14 17 26 24 27 28 5 0
3 14 17 26 25 10 9 4 0
3 14 17 26 25 22 21 4 0
3 14 17 26 25 28 27 4 0
3 14 17 29 19 18 24 4 0
3 14 17 29 19 18 25 5 0
3 14 17 29 27 9 10 5 0
3 14 17 29 27 21 22 5 0
3 14 17 29 27 24 25 5 0
3 14 17 29 28 10 9 4 0
3 14 17 29 28 22 21 4 0
3 14 17 29 28 25 24 4 0
3 20 18 7 9 15 16 5 0
3 20 18 7 9 15 17 6 0
3 20 18 7 9 27 28 5 0
3 20 18 7 9 27 29 6 0
3 20 18 7 10 16 15 4 0
3 20 18 7 10 16 17 6 0
3 20 18 7 10 28 27 4 0
3 20 18 7 10 28 29 6 0
3 20 18 7 11 17 15 4 0
3 20 18 7 11 17 16 5 0
3 20 18 7 11 29 27 4 0
3 20 18 7 11 29 28 5 0
3 20 18 12 15 9 10 5 0
3 20 18 12 15 9 11 6 0
3 20 18 12 15 27 28 5 0
3 20 18 12 15 27 29 6 0
3 20 18 12 16 10 9 4 0
3 20 18 12 16 10 11 6 0
3 20 18 12 16 28 27 4 0
3 20 18 12 16 28 29 6 0
3 20 18 12 17 11 9 4 0
3 20 18 12 17 11 10 5 0
3 20 18 12 17 29 27 4 0
3 20 18 12 17 29 28 5 0
3 20 18 24 15 13 28 5 0
3 20 18 24 15 13 29 6 0
3 20 18 24 27 13 16 5 0
3 20 18 24 27 13 17 6 0
3 20 18 25 16 13 27 4 0
3 20 18 25 16 13 29 6 0
3 20 18 25 28 13 15 4 0
3 20 18 25 28 13 17 6 0
3 20 18 26 17 13 27 4 0
3 20 18 26 17 13 28 5 0
3 20 18 26 29 13 15 4 0
3 20 18 26 29 13 16 5 0
3 20 19 13 12 7 9 4 0
3 20 19 13 12 7 10 5 0
3 20 19 13 12 7 11 6 0
3 20 19 13 15 9 10 5 0
3 20 19 13 15 9 11 6 0
3 20 19 13 15 24 25 5 0
3 20 19 13 15 24 26 6 0
3 20 19 13 16 10 9 4 0
3 20 19 13 16 10 11 6 0
3 20 19 13 16 25 24 4 0
3 20 19 13 16 25 26 6 0
3 20 19 13 17 11 9 4 0
3 20 19 13 17 11 10 5 0
3 20 19 13 17 26 24 4 0
3 20 19 13 17 26 25 5 0
3 20 19 27 9 7 25 5 0
3 20 19 27 9 7 26 6 0
3 20 19 27 15 12 25 5 0
3 20 19 27 15 12 26 6 0
3 20 19 27 24 7 10 5 0
3 20 19 27 24 7 11 6 0
3 20 19 27 24 12 16 5 0
3 20 19 27 24 12 17 6 0
3 20 19 28 10 7 24 4 0
3 20 19 28 10 7 26 6 0
3 20 19 28 16 12 24 4 0
3 20 19 28 16 12 26 6 0
3 20 19 28 25 7 9 4 0
3 20 19 28 25 7 11 6 0
3 20 19 28 25 12 15 4 0
3 20 19 28 25 12 17 6 0
3 20 19 29 11 7 24 4 0
3 20 19 29 11 7 25 5 0
3 20 19 29 17 12 24 4 0
3 20 19 29 17 12 25 5 0
3 20 19 29 26 7 9 4 0
3 20 19 29 26 7 10 5 0
3 20 19 29 26 12 15 4 0
3 20 19 29 26 12 16 5 0
3 20 21 9 7 12 16 5 0
3 20 21 9 7 12 17 6 0
3 20 21 9 10 16 17 6 0
3 20 21 9 10 25 26 6 0
3 20 21 9 10 28 29 6 0
3 20 21 9 11 17 16 5 0
3 20 21 9 11 26 25 5 0
3 20 21 9 11 29 28 5 0
3 20 21 15 12 7 10 5 0
3 20 21 15 12 7 11 6 0
3 20 21 15 16 10 11 6 0
3 20 21 15 16 25 26 6 0
3 20 21 15 16 28 29 6 0
3 20 21 15 17 11 10 5 0
3 20 21 15 17 26 25 5 0
3 20 21 15 17 29 28 5 0
3 20 21 24 12 13 28 5 0
3 20 21 24 12 13 29 6 0
3 20 21 24 25 10 11 6 0
3 20 21 24 25 16 17 6 0
3 20 21 24 25 28 29 6 0
3 20 21 24 26 11 10 5 0
3 20 21 24 26 17 16 5 0
3 20 21 24 26 29 28 5 0
3 20 21 27 13 12 25 5 0
3 20 21 27 13 12 26 6 0
3 20 21 27 28 10 11 6 0
3 20 21 27 28 16 17 6 0
3 20 21 27 28 25 26 6 0
3 20 21 27 29 11 10 5 0
3 20 21 27 29 17 16 5 0
3 20 21 27 29 26 25 5 0
3 20 22 10 7 12 15 4 0
3 20 22 10 7 12 17 6 0
3 20 22 10 9 15 17 6 0
3 20 22 10 9 24 26 6 0
3 20 22 10 9 27 29 6 0
3 20 22 10 11 17 15 4 0
3 20 22 10 11 26 24 4 0
3 20 22 10 11 29 27 4 0
3 20 22 16 12 7 9 4 0
3 20 22 16 12 7 11 6 0
3 20 22 16 15 9 11 6 0
3 20 22 16 15 24 26 6 0
3 20 22 16 15 27 29 6 0
3 20 22 16 17 11 9 4 0
3 20 22 16 17 26 24 4 0
3 20 22 16 17 29 27 4 0
3 20 22 25 12 13 27 4 0
3 20 22 25 12 13 29 6 0
3 20 22 25 24 9 11 6 0
3 20 22 25 24 15 17 6 0
3 20 22 25 24 27 29 6 0
3 20 22 25 26 11 9 4 0
3 20 22 25 26 17 15 4 0
3 20 22 25 26 29 27 4 0
3 20 22 28 13 12 24 4 0
3 20 22 28 13 12 26 6 0
3 20 22 28 27 9 11 6 0
3 20 22 28 27 15 17 6 0
3 20 22 28 27 24 26 6 0
3 20 22 28 29 11 9 4 0
3 20 22 28 29 17 15 4 0
3 20 22 28 29 26 24 4 0
3 20 23 11 7 12 15 4 0
3 20 23 11 7 12 16 5 0
3 20 23 11 9 15 16 5 0
3 20 23 11 9 24 25 5 0
3 20 23 11 9 27 28 5 0
3 20 23 11 10 16 15 4 0
3 20 23 11 10 25 24 4 0
3 20 23 11 10 28 27 4 0
3 20 23 17 12 7 9 4 0
3 20 23 17 12 7 10 5 0
3 20 23 17 15 9 10 5 0
3 20 23 17 15 24 25 5 0
3 20 23 17 15 27 28 5 0
3 20 23 17 16 10 9 4 0
3 20 23 17 16 25 24 4 0
3 20 23 17 16 28 27 4 0
3 20 23 26 12 13 27 4 0
3 20 23 26 12 13 28 5 0
3 20 23 26 24 9 10 5 0
3 20 23 26 24 15 16 5 0
3 20 23 26 24 27 28 5 0
3 20 23 26 25 10 9 4 0
3 20 23 26 25 16 15 4 0
3 20 23 26 25 28 27 4 0
3 20 23 29 13 12 24 4 0
3 20 23 29 13 12 25 5 0
3 20 23 29 27 9 10 5 0
3 20 23 29 27 15 16 5 0
3 20 23 29 27 24 25 5 0
3 20 23 29 28 10 9 4 0
3 20 23 29 28 16 15 4 0
3 20 23 29 28 25 24 4 0
3 30 10 7 12 13 27 4 0
3 30 10 7 12 13 29 6 0
3 30 10 7 18 19 27 4 0
3 30 10 7 18 19 29 6 0
3 30 10 7 24 15 17 6 0
3 30 10 7 24 21 23 6 0
3 30 10 7 24 27 29 6 0
3 30 10 7 26 17 15 4 0
3 30 10 7 26 23 21 4 0
3 30 10 7 26 29 27 4 0
3 30 10 9 15 12 26 6 0
3 30 10 9 15 13 29 6 0
3 30 10 9 21 18 26 6 0
3 30 10 9 21 19 29 6 0
3 30 10 9 24 12 17 6 0
3 30 10 9 24 18 23 6 0
3 30 10 9 27 13 17 6 0
3 30 10 9 27 19 23 6 0
3 30 10 11 17 12 24 4 0
3 30 10 11 17 13 27 4 0
3 30 10 11 23 18 24 4 0
3 30 10 11 23 19 27 4 0
3 30 10 11 26 12 15 4 0
3 30 10 11 26 18 21 4 0
3 30 10 11 29 13 15 4 0
3 30 10 11 29 19 21 4 0
3 30 16 12 18 19 27 4 0
3 30 16 12 18 19 29 6 0
3 30 16 12 24 9 11 6 0
3 30 16 12 24 21 23 6 0
3 30 16 12 24 27 29 6 0
3 30 16 12 26 11 9 4 0
3 30 16 12 26 23 21 4 0
3 30 16 12 26 29 27 4 0
3 30 16 13 19 18 24 4 0
3 30 16 13 19 18 26 6 0
3 30 16 13 27 9 11 6 0
3 30 16 13 27 21 23 6 0
3 30 16 13 27 24 26 6 0
3 30 16 13 29 11 9 4 0
3 30 16 13 29 23 21 4 0
3 30 16 13 29 26 24 4 0
3 30 16 15 9 7 26 6 0
3 30 16 15 21 18 26 6 0
3 30 16 15 21 19 29 6 0
3 30 16 15 24 7 11 6 0
3 30 16 15 24 18 23 6 0
3 30 16 15 27 19 23 6 0
3 30 16 17 11 7 24 4 0
3 30 16 17 23 18 24 4 0
3 30 16 17 23 19 27 4 0
3 30 16 17 26 7 9 4 0
3 30 16 17 26 18 21 4 0
3 30 16 17 29 19 21 4 0
3 30 22 18 12 13 27 4 0
3 30 22 18 12 13 29 6 0
3 30 22 18 24 9 11 6 0
3 30 22 18 24 15 17 6 0
3 30 22 18 24 27 29 6 0
3 30 22 18 26 11 9 4 0
3 30 22 18 26 17 15 4 0
3 30 22 18 26 29 27 4 0
3 30 22 19 13 12 24 4 0
3 30 22 19 13 12 26 6 0
3 30 22 19 27 9 11 6 0
3 30 22 19 27 15 17 6 0
3 30 22 19 27 24 26 6 0
3 30 22 19 29 11 9 4 0
3 30 22 19 29 17 15 4 0
3 30 22 19 29 26 24 4 0
3 30 22 21 9 7 26 6 0
3 30 22 21 15 12 26 6 0
3 30 22 21 15 13 29 6 0
3 30 22 21 24 7 11 6 0
3 30 22 21 24 12 17 6 0
3 30 22 21 27 13 17 6 0
3 30 22 23 11 7 24 4 0
3 30 22 23 17 12 24 4 0
3 30 22 23 17 13 27 4 0
3 30 22 23 26 7 9 4 0
3 30 22 23 26 12 15 4 0
3 30 22 23 29 13 15 4 0
3 30 25 7 9 15 17 6 0
3 30 25 7 9 21 23 6 0
3 30 25 7 9 27 29 6 0
3 30 25 7 11 17 15 4 0
3 30 25 7 11 23 21 4 0
3 30 25 7 11 29 27 4 0
3 30 25 12 13 19 21 4 0
3 30 25 12 13 19 23 6 0
3 30 25 12 15 9 11 6 0
3 30 25 12 15 21 23 6 0
3 30 25 12 15 27 29 6 0
3 30 25 12 17 11 9 4 0
3 30 25 12 17 23 21 4 0
3 30 25 12 17 29 27 4 0
3 30 25 18 19 13 15 4 0
3 30 25 18 19 13 17 6 0
3 30 25 18 21 9 11 6 0
3 30 25 18 21 15 17 6 0
3 30 25 18 21 27 29 6 0
3 30 25 18 23 11 9 4 0
3 30 25 18 23 17 15 4 0
3 30 25 18 23 29 27 4 0
3 30 25 24 15 13 29 6 0
3 30 25 24 21 19 29 6 0
3 30 25 24 27 13 17 6 0
3 30 25 24 27 19 23 6 0
3 30 25 26 17 13 27 4 0
3 30 25 26 23 19 27 4 0
3 30 25 26 29 13 15 4 0
3 30 25 26 29 19 21 4 0
3 30 28 13 12 7 9 4 0
3 30 28 13 12 7 11 6 0
3 30 28 13 12 18 21 4 0
3 30 28 13 12 18 23 6 0
3 30 28 13 15 9 11 6 0
3 30 28 13 15 21 23 6 0
3 30 28 13 15 24 26 6 0
3 30 28 13 17 11 9 4 0
3 30 28 13 17 23 21 4 0
3 30 28 13 17 26 24 4 0
3 30 28 19 18 7 9 4 0
3 30 28 19 18 7 11 6 0
3 30 28 19 18 12 15 4 0
3 30 28 19 18 12 17 6 0
3 30 28 19 21 9 11 6 0
3 30 28 19 21 15 17 6 0
3 30 28 19 21 24 26 6 0
3 30 28 19 23 11 9 4 0
3 30 28 19 23 17 15 4 0
3 30 28 19 23 26 24 4 0
3 30 28 27 9 7 26 6 0
3 30 28 27 15 12 26 6 0
3 30 28 27 21 18 26 6 0
3 30 28 27 24 7 11 6 0
3 30 28 27 24 12 17 6 0
3 30 28 27 24 18 23 6 0
3 30 28 29 11 7 24 4 0
3 30 28 29 17 12 24 4 0
3 30 28 29 23 18 24 4 0
3 30 28 29 26 7 9 4 0
3 30 28 29 26 12 15 4 0
3 30 28 29 26 18 21 4 0
3 31 11 7 12 13 27 4 0
3 31 11 7 12 13 28 5 0
3 31 11 7 18 19 27 4 0
3 31 11 7 18 19 28 5 0
3 31 11 7 24 15 16 5 0
3 31 11 7 24 21 22 5 0
3 31 11 7 24 27 28 5 0
3 31 11 7 25 16 15 4 0
3 31 11 7 25 22 21 4 0
3 31 11 7 25 28 27 4 0
3 31 11 9 15 12 25 5 0
3 31 11 9 15 13 28 5 0
3 31 11 9 21 18 25 5 0
3 31 11 9 21 19 28 5 0
3 31 11 9 24 12 16 5 0
3 31 11 9 24 18 22 5 0
3 31 11 9 27 13 16 5 0
3 31 11 9 27 19 22 5 0
3 31 11 10 16 12 24 4 0
3 31 11 10 16 13 27 4 0
3 31 11 10 22 18 24 4 0
3 31 11 10 22 19 27 4 0
3 31 11 10 25 12 15 4 0
3 31 11 10 25 18 21 4 0
3 31 11 10 28 13 15 4 0
3 31 11 10 28 19 21 4 0
3 31 17 12 18 19 27 4 0
3 31 17 12 18 19 28 5 0
3 31 17 12 24 9 10 5 0
3 31 17 12 24 21 22 5 0
3 31 17 12 24 27 28 5 0
3 31 17 12 25 10 9 4 0
3 31 17 12 25 22 21 4 0
3 31 17 12 25 28 27 4 0
3 31 17 13 19 18 24 4 0
3 31 17 13 19 18 25 5 0
3 31 17 13 27 9 10 5 0
3 31 17 13 27 21 22 5 0
3 31 17 13 27 24 25 5 0
3 31 17 13 28 10 9 4 0
3 31 17 13 28 22 21 4 0
3 31 17 13 28 25 24 4 0
3 31 17 15 9 7 25 5 0
3 31 17 15 21 18 25 5 0
3 31 17 15 21 19 28 5 0
3 31 17 15 24 7 10 5 0
3 31 17 15 24 18 22 5 0
3 31 17 15 27 19 22 5 0
3 31 17 16 10 7 24 4 0
3 31 17 16 22 18 24 4 0
3 31 17 16 22 19 27 4 0
3 31 17 16 25 7 9 4 0
3 31 17 16 25 18 21 4 0
3 31 17 16 28 19 21 4 0
3 31 23 18 12 13 27 4 0
3 31 23 18 12 13 28 5 0
3 31 23 18 24 9 10 5 0
3 31 23 18 24 15 16 5 0
3 31 23 18 24 27 28 5 0
3 31 23 18 25 10 9 4 0
3 31 23 18 25 16 15 4 0
3 31 23 18 25 28 27 4 0
3 31 23 19 13 12 24 4 0
3 31 23 19 13 12 25 5 0
3 31 23 19 27 9 10 5 0
3 31 23 19 27 15 16 5 0
3 31 23 19 27 24 25 5 0
3 31 23 19 28 10 9 4 0
3 31 23 19 28 16 15 4 0
3 31 23 19 28 25 24 4 0
3 31 23 21 9 7 25 5 0
3 31 23 21 15 12 25 5 0
3 31 23 21 15 13 28 5 0
3 31 23 21 24 7 10 5 0
3 31 23 21 24 12 16 5 0
3 31 23 21 27 13 16 5 0
3 31 23 22 10 7 24 4 0
3 31 23 22 16 12 24 4 0
3 31 23 22 16 13 27 4 0
3 31 23 22 25 7 9 4 0
3 31 23 22 25 12 15 4 0
3 31 23 22 28 13 15 4 0
3 31 26 7 9 15 16 5 0
3 31 26 7 9 21 22 5 0
3 31 26 7 9 27 28 5 0
3 31 26 7 10 16 15 4 0
3 31 26 7 10 22 21 4 0
3 31 26 7 10 28 27 4 0
3 31 26 12 13 19 21 4 0
3 31 26 12 13 19 22 5 0
3 31 26 12 15 9 10 5 0
3 31 26 12 15 21 22 5 0
3 31 26 12 15 27 28 5 0
3 31 26 12 16 10 9 4 0
3 31 26 12 16 22 21 4 0
3 31 26 12 16 28 27 4 0
3 31 26 18 19 13 15 4 0
3 31 26 18 19 13 16 5 0
3 31 26 18 21 9 10 5 0
3 31 26 18 21 15 16 5 0
3 31 26 18 21 27 28 5 0
3 31 26 18 22 10 9 4 0
3 31 26 18 22 16 15 4 0
3 31 26 18 22 28 27 4 0
3 31 26 24 15 13 28 5 0
3 31 26 24 21 19 28 5 0
3 31 26 24 27 13 16 5 0
3 31 26 24 27 19 22 5 0
3 31 26 25 16 13 27 4 0
3 31 26 25 22 19 27 4 0
3 31 26 25 28 13 15 4 0
3 31 26 25 28 19 21 4 0
3 31 29 13 12 7 9 4 0
3 31 29 13 12 7 10 5 0
3 31 29 13 12 18 21 4 0
3 31 29 13 12 18 22 5 0
3 31 29 13 15 9 10 5 0
3 31 29 13 15 21 22 5 0
3 31 29 13 15 24 25 5 0
3 31 29 13 16 10 9 4 0
3 31 29 13 16 22 21 4 0
3 31 29 13 16 25 24 4 0
3 31 29 19 18 7 9 4 0
3 31 29 19 18 7 10 5 0
3 31 29 19 18 12 15 4 0
3 31 29 19 18 12 16 5 0
3 31 29 19 21 9 10 5 0
3 31 29 19 21 15 16 5 0
3 31 29 19 21 24 25 5 0
3 31 29 19 22 10 9 4 0
3 31 29 19 22 16 15 4 0
3 31 29 19 22 25 24 4 0
3 31 29 27 9 7 25 5 0
3 31 29 27 15 12 25 5 0
3 31 29 27 21 18 25 5 0
3 31 29 27 24 7 10 5 0
3 31 29 27 24 12 16 5 0
3 31 29 27 24 18 22 5 0
3 31 29 28 10 7 24 4 0
3 31 29 28 16 12 24 4 0
3 31 29 28 22 18 24 4 0
3 31 29 28 25 7 9 4 0
3 31 29 28 25 12 15 4 0
3 31 29 28 25 18 21 4 0
4 9 7 12 13 19 22 5 0
4 9 7 12 13 19 23 6 0
4 9 7 12 14 20 22 5 0
4 9 7 12 14 20 23 6 0
4 9 7 12 16 22 23 6 0
4 9 7 12 16 28 29 6 0
4 9 7 12 16 30 31 6 0
4 9 7 12 17 23 22 5 0
4 9 7 12 17 29 28 5 0
4 9 7 12 17 31 30 5 0
4 9 7 18 19 13 16 5 0
4 9 7 18 19 13 17 6 0
4 9 7 18 20 14 16 5 0
4 9 7 18 20 14 17 6 0
4 9 7 18 22 16 17 6 0
4 9 7 18 22 28 29 6 0
4 9 7 18 22 30 31 6 0
4 9 7 18 23 17 16 5 0
4 9 7 18 23 29 28 5 0
4 9 7 18 23 31 30 5 0
4 9 7 25 16 13 29 6 0
4 9 7 25 16 14 31 6 0
4 9 7 25 22 19 29 6 0
4 9 7 25 22 20 31 6 0
4 9 7 25 28 13 17 6 0
4 9 7 25 28 19 23 6 0
4 9 7 25 30 14 17 6 0
4 9 7 25 30 20 23 6 0
4 9 7 26 17 13 28 5 0
4 9 7 26 17 14 30 5 0
4 9 7 26 23 19 28 5 0
4 9 7 26 23 20 30 5 0
4 9 7 26 29 13 16 5 0
4 9 7 26 29 19 22 5 0
4 9 7 26 31 14 16 5 0
4 9 7 26 31 20 22 5 0
4 9 8 14 12 18 22 5 0
4 9 8 14 12 18 23 6 0
4 9 8 14 13 19 22 5 0
4 9 8 14 13 19 23 6 0
4 9 8 14 16 22 23 6 0
4 9 8 14 16 25 26 6 0
4 9 8 14 16 28 29 6 0
4 9 8 14 17 23 22 5 0
4 9 8 14 17 26 25 5 0
4 9 8 14 17 29 28 5 0
4 9 8 20 18 12 16 5 0
4 9 8 20 18 12 17 6 0
4 9 8 20 19 13 16 5 0
4 9 8 20 19 13 17 6 0
4 9 8 20 22 16 17 6 0
4 9 8 20 22 25 26 6 0
4 9 8 20 22 28 29 6 0
4 9 8 20 23 17 16 5 0
4 9 8 20 23 26 25 5 0
4 9 8 20 23 29 28 5 0
4 9 8 30 16 12 26 6 0
4 9 8 30 16 13 29 6 0
4 9 8 30 22 18 26 6 0
4 9 8 30 22 19 29 6 0
4 9 8 30 25 12 17 6 0
4 9 8 30 25 18 23 6 0
4 9 8 30 28 13 17 6 0
4 9 8 30 28 19 23 6 0
4 9 8 31 17 12 25 5 0
4 9 8 31 17 13 28 5 0
4 9 8 31 23 18 25 5 0
4 9 8 31 23 19 28 5 0
4 9 8 31 26 12 16 5 0
4 9 8 31 26 18 22 5 0
4 9 8 31 29 13 16 5 0
4 9 8 31 29 19 22 5 0
4 9 10 16 12 18 23 6 0
4 9 10 16 13 19 23 6 0
4 9 10 16 14 20 23 6 0
4 9 10 22 18 12 17 6 0
4 9 10 22 19 13 17 6 0
4 9 10 22 20 14 17 6 0
4 9 10 25 12 13 29 6 0
4 9 10 25 12 14 31 6 0
4 9 10 25 18 19 29 6 0
4 9 10 25 18 20 31 6 0
4 9 10 28 13 12 26 6 0
4 9 10 28 13 14 31 6 0
4 9 10 28 19 18 26 6 0
4 9 10 28 19 20 31 6 0
4 9 10 30 14 12 26 6 0
4 9 10 30 14 13 29 6 0
4 9 10 30 20 18 26 6 0
4 9 10 30 20 19 29 6 0
4 9 11 17 12 18 22 5 0
4 9 11 17 13 19 22 5 0
4 9 11 17 14 20 22 5 0
4 9 11 23 18 12 16 5 0
4 9 11 23 19 13 16 5 0
4 9 11 23 20 14 16 5 0
4 9 11 26 12 13 28 5 0
4 9 11 26 12 14 30 5 0
4 9 11 26 18 19 28 5 0
4 9 11 26 18 20 30 5 0
4 9 11 29 13 12 25 5 0
4 9 11 29 13 14 30 5 0
4 9 11 29 19 18 25 5 0
4 9 11 29 19 20 30 5 0
4 9 11 31 14 12 25 5 0
4 9 11 31 14 13 28 5 0
4 9 11 31 20 18 25 5 0
4 9 11 31 20 19 28 5 0
4 15 12 7 8 20 22 5 0
4 15 12 7 8 20 23 6 0
4 15 12 7 10 22 23 6 0
4 15 12 7 10 28 29 6 0
4 15 12 7 10 30 31 6 0
4 15 12 7 11 23 22 5 0
4 15 12 7 11 29 28 5 0
4 15 12 7 11 31 30 5 0
4 15 12 18 20 8 10 5 0
4 15 12 18 20 8 11 6 0
4 15 12 18 22 10 11 6 0
4 15 12 18 22 28 29 6 0
4 15 12 18 22 30 31 6 0
4 15 12 18 23 11 10 5 0
4 15 12 18 23 29 28 5 0
4 15 12 18 23 31 30 5 0
4 15 12 25 10 8 31 6 0
4 15 12 25 22 19 29 6 0
4 15 12 25 22 20 31 6 0
4 15 12 25 28 19 23 6 0
4 15 12 25 30 8 11 6 0
4 15 12 25 30 20 23 6 0
4 15 12 26 11 8 30 5 0
4 15 12 26 23 19 28 5 0
4 15 12 26 23 20 30 5 0
4 15 12 26 29 19 22 5 0
4 15 12 26 31 8 10 5 0
4 15 12 26 31 20 22 5 0
4 15 13 19 18 7 10 5 0
4 15 13 19 18 7 11 6 0
4 15 13 19 20 8 10 5 0
4 15 13 19 20 8 11 6 0
4 15 13 19 22 10 11 6 0
4 15 13 19 22 25 26 6 0
4 15 13 19 22 30 31 6 0
4 15 13 19 23 11 10 5 0
4 15 13 19 23 26 25 5 0
4 15 13 19 23 31 30 5 0
4 15 13 28 10 7 26 6 0
4 15 13 28 10 8 31 6 0
4 15 13 28 22 18 26 6 0
4 15 13 28 22 20 31 6 0
4 15 13 28 25 7 11 6 0
4 15 13 28 25 18 23 6 0
4 15 13 28 30 8 11 6 0
4 15 13 28 30 20 23 6 0
4 15 13 29 11 7 25 5 0
4 15 13 29 11 8 30 5 0
4 15 13 29 23 18 25 5 0
4 15 13 29 23 20 30 5 0
4 15 13 29 26 7 10 5 0
4 15 13 29 26 18 22 5 0
4 15 13 29 31 8 10 5 0
4 15 13 29 31 20 22 5 0
4 15 14 8 7 18 22 5 0
4 15 14 8 7 18 23 6 0
4 15 14 8 10 22 23 6 0
4 15 14 8 10 25 26 6 0
4 15 14 8 10 28 29 6 0
4 15 14 8 11 23 22 5 0
4 15 14 8 11 26 25 5 0
4 15 14 8 11 29 28 5 0
4 15 14 20 18 7 10 5 0
4 15 14 20 18 7 11 6 0
4 15 14 20 22 10 11 6 0
4 15 14 20 22 25 26 6 0
4 15 14 20 22 28 29 6 0
4 15 14 20 23 11 10 5 0
4 15 14 20 23 26 25 5 0
4 15 14 20 23 29 28 5 0
4 15 14 30 10 7 26 6 0
4 15 14 30 22 18 26 6 0
4 15 14 30 22 19 29 6 0
4 15 14 30 25 7 11 6 0
4 15 14 30 25 18 23 6 0
4 15 14 30 28 19 23 6 0
4 15 14 31 11 7 25 5 0
4 15 14 31 23 18 25 5 0
4 15 14 31 23 19 28 5 0
4 15 14 31 26 7 10 5 0
4 15 14 31 26 18 22 5 0
4 15 14 31 29 19 22 5 0
4 15 16 10 7 18 23 6 0
4 15 16 10 8 20 23 6 0
4 15 16 22 18 7 11 6 0
4 15 16 22 20 8 11 6 0
4 15 16 25 7 8 31 6 0
4 15 16 25 18 19 29 6 0
4 15 16 25 18 20 31 6 0
4 15 16 28 19 18 26 6 0
4 15 16 28 19 20 31 6 0
4 15 16 30 8 7 26 6 0
4 15 16 30 20 18 26 6 0
4 15 16 30 20 19 29 6 0
4 15 17 11 7 18 22 5 0
4 15 17 11 8 20 22 5 0
4 15 17 23 18 7 10 5 0
4 15 17 23 20 8 10 5 0
4 15 17 26 7 8 30 5 0
4 15 17 26 18 19 28 5 0
4 15 17 26 18 20 30 5 0
4 15 17 29 19 18 25 5 0
4 15 17 29 19 20 30 5 0
4 15 17 31 8 7 25 5 0
4 15 17 31 20 18 25 5 0
4 15 17 31 20 19 28 5 0
4 21 18 7 8 14 16 5 0
4 21 18 7 8 14 17 6 0
4 21 18 7 10 16 17 6 0
4 21 18 7 10 28 29 6 0
4 21 18 7 10 30 31 6 0
4 21 18 7 11 17 16 5 0
4 21 18 7 11 29 28 5 0
4 21 18 7 11 31 30 5 0
4 21 18 12 14 8 10 5 0
4 21 18 12 14 8 11 6 0
4 21 18 12 16 10 11 6 0
4 21 18 12 16 28 29 6 0
4 21 18 12 16 30 31 6 0
4 21 18 12 17 11 10 5 0
4 21 18 12 17 29 28 5 0
4 21 18 12 17 31 30 5 0
4 21 18 25 10 8 31 6 0
4 21 18 25 16 13 29 6 0
4 21 18 25 16 14 31 6 0
4 21 18 25 28 13 17 6 0
4 21 18 25 30 8 11 6 0
4 21 18 25 30 14 17 6 0
4 21 18 26 11 8 30 5 0
4 21 18 26 17 13 28 5 0
4 21 18 26 17 14 30 5 0
4 21 18 26 29 13 16 5 0
4 21 18 26 31 8 10 5 0
4 21 18 26 31 14 16 5 0
4 21 19 13 12 7 10 5 0
4 21 19 13 12 7 11 6 0
4 21 19 13 14 8 10 5 0
4 21 19 13 14 8 11 6 0
4 21 19 13 16 10 11 6 0
4 21 19 13 16 25 26 6 0
4 21 19 13 16 30 31 6 0
4 21 19 13 17 11 10 5 0
4 21 19 13 17 26 25 5 0
4 21 19 13 17 31 30 5 0
4 21 19 28 10 7 26 6 0
4 21 19 28 10 8 31 6 0
4 21 19 28 16 12 26 6 0
4 21 19 28 16 14 31 6 0
4 21 19 28 25 7 11 6 0
4 21 19 28 25 12 17 6 0
4 21 19 28 30 8 11 6 0
4 21 19 28 30 14 17 6 0
4 21 19 29 11 7 25 5 0
4 21 19 29 11 8 30 5 0
4 21 19 29 17 12 25 5 0
4 21 19 29 17 14 30 5 0
4 21 19 29 26 7 10 5 0
4 21 19 29 26 12 16 5 0
4 21 19 29 31 8 10 5 0
4 21 19 29 31 14 16 5 0
4 21 20 8 7 12 16 5 0
4 21 20 8 7 12 17 6 0
4 21 20 8 10 16 17 6 0
4 21 20 8 10 25 26 6 0
4 21 20 8 10 28 29 6 0
4 21 20 8 11 17 16 5 0
4 21 20 8 11 26 25 5 0
4 21 20 8 11 29 28 5 0
4 21 20 14 12 7 10 5 0
4 21 20 14 12 7 11 6 0
4 21 20 14 16 10 11 6 0
4 21 20 14 16 25 26 6 0
4 21 20 14 16 28 29 6 0
4 21 20 14 17 11 10 5 0
4 21 20 14 17 26 25 5 0
4 21 20 14 17 29 28 5 0
4 21 20 30 10 7 26 6 0
4 21 20 30 16 12 26 6 0
4 21 20 30 16 13 29 6 0
4 21 20 30 25 7 11 6 0
4 21 20 30 25 12 17 6 0
4 21 20 30 28 13 17 6 0
4 21 20 31 11 7 25 5 0
4 21 20 31 17 12 25 5 0
4 21 20 31 17 13 28 5 0
4 21 20 31 26 7 10 5 0
4 21 20 31 26 12 16 5 0
4 21 20 31 29 13 16 5 0
4 21 22 10 7 12 17 6 0
4 21 22 10 8 14 17 6 0
4 21 22 16 12 7 11 6 0
4 21 22 16 14 8 11 6 0
4 21 22 25 7 8 31 6 0
4 21 22 25 12 13 29 6 0
4 21 22 25 12 14 31 6 0
4 21 22 28 13 12 26 6 0
4 21 22 28 13 14 31 6 0
4 21 22 30 8 7 26 6 0
4 21 22 30 14 12 26 6 0
4 21 22 30 14 13 29 6 0
4 21 23 11 7 12 16 5 0
4 21 23 11 8 14 16 5 0
4 21 23 17 12 7 10 5 0
4 21 23 17 14 8 10 5 0
4 21 23 26 7 8 30 5 0
4 21 23 26 12 13 28 5 0
4 21 23 26 12 14 30 5 0
4 21 23 29 13 12 25 5 0
4 21 23 29 13 14 30 5 0
4 21 23 31 8 7 25 5 0
4 21 23 31 14 12 25 5 0
4 21 23 31 14 13 28 5 0
4 24 7 8 14 13 28 5 0
4 24 7 8 14 13 29 6 0
4 24 7 8 20 19 28 5 0
4 24 7 8 20 19 29 6 0
4 24 7 8 30 16 17 6 0
4 24 7 8 30 22 23 6 0
4 24 7 8 30 28 29 6 0
4 24 7 8 31 17 16 5 0
4 24 7 8 31 23 22 5 0
4 24 7 8 31 29 28 5 0
4 24 7 10 16 13 29 6 0
4 24 7 10 16 14 31 6 0
4 24 7 10 22 19 29 6 0
4 24 7 10 22 20 31 6 0
4 24 7 10 28 13 17 6 0
4 24 7 10 28 19 23 6 0
4 24 7 10 30 14 17 6 0
4 24 7 10 30 20 23 6 0
4 24 7 11 17 13 28 5 0
4 24 7 11 17 14 30 5 0
4 24 7 11 23 19 28 5 0
4 24 7 11 23 20 30 5 0
4 24 7 11 29 13 16 5 0
4 24 7 11 29 19 22 5 0
4 24 7 11 31 14 16 5 0
4 24 7 11 31 20 22 5 0
4 24 12 13 19 20 30 5 0
4 24 12 13 19 20 31 6 0
4 24 12 13 28 10 11 6 0
4 24 12 13 28 22 23 6 0
4 24 12 13 28 30 31 6 0
4 24 12 13 29 11 10 5 0
4 24 12 13 29 23 22 5 0
4 24 12 13 29 31 30 5 0
4 24 12 14 20 19 28 5 0
4 24 12 14 20 19 29 6 0
4 24 12 14 30 10 11 6 0
4 24 12 14 30 22 23 6 0
4 24 12 14 30 28 29 6 0
4 24 12 14 31 11 10 5 0
4 24 12 14 31 23 22 5 0
4 24 12 14 31 29 28 5 0
4 24 12 16 10 8 31 6 0
4 24 12 16 22 19 29 6 0
4 24 12 16 22 20 31 6 0
4 24 12 16 28 19 23 6 0
4 24 12 16 30 8 11 6 0
4 24 12 16 30 20 23 6 0
4 24 12 17 11 8 30 5 0
4 24 12 17 23 19 28 5 0
4 24 12 17 23 20 30 5 0
4 24 12 17 29 19 22 5 0
4 24 12 17 31 8 10 5 0
4 24 12 17 31 20 22 5 0
4 24 18 19 13 14 30 5 0
4 24 18 19 13 14 31 6 0
4 24 18 19 28 10 11 6 0
4 24 18 19 28 16 17 6 0
4 24 18 19 28 30 31 6 0
4 24 18 19 29 11 10 5 0
4 24 18 19 29 17 16 5 0
4 24 18 19 29 31 30 5 0
4 24 18 20 14 13 28 5 0
4 24 18 20 14 13 29 6 0
4 24 18 20 30 10 11 6 0
4 24 18 20 30 16 17 6 0
4 24 18 20 30 28 29 6 0
4 24 18 20 31 11 10 5 0
4 24 18 20 31 17 16 5 0
4 24 18 20 31 29 28 5 0
4 24 18 22 10 8 31 6 0
4 24 18 22 16 13 29 6 0
4 24 18 22 16 14 31 6 0
4 24 18 22 28 13 17 6 0
4 24 18 22 30 8 11 6 0
4 24 18 22 30 14 17 6 0
4 24 18 23 11 8 30 5 0
4 24 18 23 17 13 28 5 0
4 24 18 23 17 14 30 5 0
4 24 18 23 29 13 16 5 0
4 24 18 23 31 8 10 5 0
4 24 18 23 31 14 16 5 0
4 24 25 10 8 14 17 6 0
4 24 25 10 8 20 23 6 0
4 24 25 16 13 19 23 6 0
4 24 25 16 14 8 11 6 0
4 24 25 16 14 20 23 6 0
4 24 25 22 19 13 17 6 0
4 24 25 22 20 8 11 6 0
4 24 25 22 20 14 17 6 0
4 24 25 28 13 14 31 6 0
4 24 25 28 19 20 31 6 0
4 24 25 30 14 13 29 6 0
4 24 25 30 20 19 29 6 0
4 24 26 11 8 14 16 5 0
4 24 26 11 8 20 22 5 0
4 24 26 17 13 19 22 5 0
4 24 26 17 14 8 10 5 0
4 24 26 17 14 20 22 5 0
4 24 26 23 19 13 16 5 0
4 24 26 23 20 8 10 5 0
4 24 26 23 20 14 16 5 0
4 24 26 29 13 14 30 5 0
4 24 26 29 19 20 30 5 0
4 24 26 31 14 13 28 5 0
4 24 26 31 20 19 28 5 0
4 27 13 12 7 8 30 5 0
4 27 13 12 7 8 31 6 0
4 27 13 12 18 20 30 5 0
4 27 13 12 18 20 31 6 0
4 27 13 12 25 10 11 6 0
4 27 13 12 25 22 23 6 0
4 27 13 12 25 30 31 6 0
4 27 13 12 26 11 10 5 0
4 27 13 12 26 23 22 5 0
4 27 13 12 26 31 30 5 0
4 27 13 14 8 7 25 5 0
4 27 13 14 8 7 26 6 0
4 27 13 14 20 18 25 5 0
4 27 13 14 20 18 26 6 0
4 27 13 14 30 10 11 6 0
4 27 13 14 30 22 23 6 0
4 27 13 14 30 25 26 6 0
4 27 13 14 31 11 10 5 0
4 27 13 14 31 23 22 5 0
4 27 13 14 31 26 25 5 0
4 27 13 16 10 7 26 6 0
4 27 13 16 10 8 31 6 0
4 27 13 16 22 18 26 6 0
4 27 13 16 22 20 31 6 0
4 27 13 16 25 7 11 6 0
4 27 13 16 25 18 23 6 0
4 27 13 16 30 8 11 6 0
4 27 13 16 30 20 23 6 0
4 27 13 17 11 7 25 5 0
4 27 13 17 11 8 30 5 0
4 27 13 17 23 18 25 5 0
4 27 13 17 23 20 30 5 0
4 27 13 17 26 7 10 5 0
4 27 13 17 26 18 22 5 0
4 27 13 17 31 8 10 5 0
4 27 13 17 31 20 22 5 0
4 27 19 18 7 8 30 5 0
4 27 19 18 7 8 31 6 0
4 27 19 18 12 14 30 5 0
4 27 19 18 12 14 31 6 0
4 27 19 18 25 10 11 6 0
4 27 19 18 25 16 17 6 0
4 27 19 18 25 30 31 6 0
4 27 19 18 26 11 10 5 0
4 27 19 18 26 17 16 5 0
4 27 19 18 26 31 30 5 0
4 27 19 20 8 7 25 5 0
4 27 19 20 8 7 26 6 0
4 27 19 20 14 12 25 5 0
4 27 19 20 14 12 26 6 0
4 27 19 20 30 10 11 6 0
4 27 19 20 30 16 17 6 0
4 27 19 20 30 25 26 6 0
4 27 19 20 31 11 10 5 0
4 27 19 20 31 17 16 5 0
4 27 19 20 31 26 25 5 0
4 27 19 22 10 7 26 6 0
4 27 19 22 10 8 31 6 0
4 27 19 22 16 12 26 6 0
4 27 19 22 16 14 31 6 0
4 27 19 22 25 7 11 6 0
4 27 19 22 25 12 17 6 0
4 27 19 22 30 8 11 6 0
4 27 19 22 30 14 17 6 0
4 27 19 23 11 7 25 5 0
4 27 19 23 11 8 30 5 0
4 27 19 23 17 12 25 5 0
4 27 19 23 17 14 30 5 0
4 27 19 23 26 7 10 5 0
4 27 19 23 26 12 16 5 0
4 27 19 23 31 8 10 5 0
4 27 19 23 31 14 16 5 0
4 27 28 10 7 12 17 6 0
4 27 28 10 7 18 23 6 0
4 27 28 10 8 14 17 6 0
4 27 28 10 8 20 23 6 0
4 27 28 16 12 7 11 6 0
4 27 28 16 12 18 23 6 0
4 27 28 16 14 8 11 6 0
4 27 28 16 14 20 23 6 0
4 27 28 22 18 7 11 6 0
4 27 28 22 18 12 17 6 0
4 27 28 22 20 8 11 6 0
4 27 28 22 20 14 17 6 0
4 27 28 25 7 8 31 6 0
4 27 28 25 12 14 31 6 0
4 27 28 25 18 20 31 6 0
4 27 28 30 8 7 26 6 0
4 27 28 30 14 12 26 6 0
4 27 28 30 20 18 26 6 0
4 27 29 11 7 12 16 5 0
4 27 29 11 7 18 22 5 0
4 27 29 11 8 14 16 5 0
4 27 29 11 8 20 22 5 0
4 27 29 17 12 7 10 5 0
4 27 29 17 12 18 22 5 0
4 27 29 17 14 8 10 5 0
4 27 29 17 14 20 22 5 0
4 27 29 23 18 7 10 5 0
4 27 29 23 18 12 16 5 0
4 27 29 23 20 8 10 5 0
4 27 29 23 20 14 16 5 0
4 27 29 26 7 8 30 5 0
4 27 29 26 12 14 30 5 0
4 27 29 26 18 20 30 5 0
4 27 29 31 8 7 25 5 0
4 27 29 31 14 12 25 5 0
4 27 29 31 20 18 25 5 0
5 10 7 12 13 19 23 6 0
5 10 7 12 14 20 23 6 0
5 10 7 12 15 21 23 6 0
5 10 7 12 15 27 29 6 0
5 10 7 18 19 13 17 6 0
5 10 7 18 20 14 17 6 0
5 10 7 18 21 15 17 6 0
5 10 7 18 21 27 29 6 0
5 10 7 24 15 13 29 6 0
5 10 7 24 15 14 31 6 0
5 10 7 24 21 19 29 6 0
5 10 7 24 21 20 31 6 0
5 10 7 24 27 13 17 6 0
5 10 7 24 27 19 23 6 0
5 10 8 14 12 18 23 6 0
5 10 8 14 13 19 23 6 0
5 10 8 14 15 21 23 6 0
5 10 8 14 15 24 26 6 0
5 10 8 14 15 27 29 6 0
5 10 8 20 18 12 17 6 0
5 10 8 20 19 13 17 6 0
5 10 8 20 21 15 17 6 0
5 10 8 20 21 24 26 6 0
5 10 8 20 21 27 29 6 0
5 10 9 15 12 18 23 6 0
5 10 9 15 13 19 23 6 0
5 10 9 15 14 20 23 6 0
5 10 9 21 18 12 17 6 0
5 10 9 21 19 13 17 6 0
5 10 9 21 20 14 17 6 0
5 10 9 24 12 13 29 6 0
5 10 9 24 12 14 31 6 0
5 10 9 24 18 19 29 6 0
5 10 9 24 18 20 31 6 0
5 10 9 27 13 12 26 6 0
5 10 9 27 13 14 31 6 0
5 10 9 27 19 18 26 6 0
5 10 9 27 19 20 31 6 0
5 16 12 7 8 20 23 6 0
5 16 12 7 9 21 23 6 0
5 16 12 7 9 27 29 6 0
5 16 12 18 20 8 11 6 0
5 16 12 18 21 9 11 6 0
5 16 12 18 21 27 29 6 0
5 16 12 24 9 8 31 6 0
5 16 12 24 21 19 29 6 0
5 16 12 24 21 20 31 6 0
5 16 12 24 27 19 23 6 0
5 16 13 19 18 7 11 6 0
5 16 13 19 20 8 11 6 0
5 16 13 19 21 9 11 6 0
5 16 13 19 21 24 26 6 0
5 16 13 27 9 7 26 6 0
5 16 13 27 9 8 31 6 0
5 16 13 27 21 18 26 6 0
5 16 13 27 21 20 31 6 0
5 16 13 27 24 7 11 6 0
5 16 13 27 24 18 23 6 0
5 16 14 8 7 18 23 6 0
5 16 14 8 9 21 23 6 0
5 16 14 8 9 24 26 6 0
5 16 14 8 9 27 29 6 0
5 16 14 20 18 7 11 6 0
5 16 14 20 21 9 11 6 0
5 16 14 20 21 24 26 6 0
5 16 14 20 21 27 29 6 0
5 16 15 9 7 18 23 6 0
5 16 15 9 8 20 23 6 0
5 16 15 21 18 7 11 6 0
5 16 15 21 20 8 11 6 0
5 16 15 24 7 8 31 6 0
5 16 15 24 18 19 29 6 0
5 16 15 24 18 20 31 6 0
5 16 15 27 19 18 26 6 0
5 16 15 27 19 20 31 6 0
5 22 18 7 8 14 17 6 0
5 22 18 7 9 15 17 6 0
5 22 18 7 9 27 29 6 0
5 22 18 12 14 8 11 6 0
5 22 18 12 15 9 11 6 0
5 22 18 12 15 27 29 6 0
5 22 18 24 9 8 31 6 0
5 22 18 24 15 13 29 6 0
5 22 18 24 15 14 31 6 0
5 22 18 24 27 13 17 6 0
5 22 19 13 12 7 11 6 0
5 22 19 13 14 8 11 6 0
5 22 19 13 15 9 11 6 0
5 22 19 13 15 24 26 6 0
5 22 19 27 9 7 26 6 0
5 22 19 27 9 8 31 6 0
5 22 19 27 15 12 26 6 0
5 22 19 27 15 14 31 6 0
5 22 19 27 24 7 11 6 0
5 22 19 27 24 12 17 6 0
5 22 20 8 7 12 17 6 0
5 22 20 8 9 15 17 6 0
5 22 20 8 9 24 26 6 0
5 22 20 8 9 27 29 6 0
5 22 20 14 12 7 11 6 0
5 22 20 14 15 9 11 6 0
5 22 20 14 15 24 26 6 0
5 22 20 14 15 27 29 6 0
5 22 21 9 7 12 17 6 0
5 22 21 9 8 14 17 6 0
5 22 21 15 12 7 11 6 0
5 22 21 15 14 8 11 6 0
5 22 21 24 7 8 31 6 0
5 22 21 24 12 13 29 6 0
5 22 21 24 12 14 31 6 0
5 22 21 27 13 12 26 6 0
5 22 21 27 13 14 31 6 0
5 25 7 8 14 13 29 6 0
5 25 7 8 20 19 29 6 0
5 25 7 9 15 13 29 6 0
5 25 7 9 15 14 31 6 0
5 25 7 9 21 19 29 6 0
5 25 7 9 21 20 31 6 0
5 25 7 9 27 13 17 6 0
5 25 7 9 27 19 23 6 0
5 25 12 13 19 20 31 6 0
5 25 12 13 27 9 11 6 0
5 25 12 13 27 21 23 6 0
5 25 12 14 20 19 29 6 0
5 25 12 15 9 8 31 6 0
5 25 12 15 21 19 29 6 0
5 25 12 15 21 20 31 6 0
5 25 12 15 27 19 23 6 0
5 25 18 19 13 14 31 6 0
5 25 18 19 27 9 11 6 0
5 25 18 19 27 15 17 6 0
5 25 18 20 14 13 29 6 0
5 25 18 21 9 8 31 6 0
5 25 18 21 15 13 29 6 0
5 25 18 21 15 14 31 6 0
5 25 18 21 27 13 17 6 0
5 25 24 9 8 14 17 6 0
5 25 24 9 8 20 23 6 0
5 25 24 15 13 19 23 6 0
5 25 24 15 14 8 11 6 0
5 25 24 15 14 20 23 6 0
5 25 24 21 19 13 17 6 0
5 25 24 21 20 8 11 6 0
5 25 24 21 20 14 17 6 0
5 25 24 27 13 14 31 6 0
5 25 24 27 19 20 31 6 0
5 28 13 12 7 8 31 6 0
5 28 13 12 18 20 31 6 0
5 28 13 12 24 9 11 6 0
5 28 13 12 24 21 23 6 0
5 28 13 14 8 7 26 6 0
5 28 13 14 20 18 26 6 0
5 28 13 15 9 7 26 6 0
5 28 13 15 9 8 31 6 0
5 28 13 15 21 18 26 6 0
5 28 13 15 21 20 31 6 0
5 28 13 15 24 7 11 6 0
5 28 13 15 24 18 23 6 0
5 28 19 18 7 8 31 6 0
5 28 19 18 12 14 31 6 0
5 28 19 18 24 9 11 6 0
5 28 19 18 24 15 17 6 0
5 28 19 20 8 7 26 6 0
5 28 19 20 14 12 26 6 0
5 28 19 21 9 7 26 6 0
5 28 19 21 9 8 31 6 0
5 28 19 21 15 12 26 6 0
5 28 19 21 15 14 31 6 0
5 28 19 21 24 7 11 6 0
5 28 19 21 24 12 17 6 0
5 28 27 9 7 12 17 6 0
5 28 27 9 7 18 23 6 0
5 28 27 9 8 14 17 6 0
5 28 27 9 8 20 23 6 0
5 28 27 15 12 7 11 6 0
5 28 27 15 12 18 23 6 0
5 28 27 15 14 8 11 6 0
5 28 27 15 14 20 23 6 0
5 28 27 21 18 7 11 6 0
5 28 27 21 18 12 17 6 0
5 28 27 21 20 8 11 6 0
5 28 27 21 20 14 17 6 0
5 28 27 24 7 8 31 6 0
5 28 27 24 12 14 31 6 0
5 28 27 24 18 20 31 6 0
5 30 8 7 12 13 29 6 0
5 30 8 7 18 19 29 6 0
5 30 8 7 24 15 17 6 0
5 30 8 7 24 21 23 6 0
5 30 8 7 24 27 29 6 0
5 30 8 9 15 12 26 6 0
5 30 8 9 15 13 29 6 0
5 30 8 9 21 18 26 6 0
5 30 8 9 21 19 29 6 0
5 30 8 9 24 12 17 6 0
5 30 8 9 24 18 23 6 0
5 30 8 9 27 13 17 6 0
5 30 8 9 27 19 23 6 0
5 30 14 12 18 19 29 6 0
5 30 14 12 24 9 11 6 0
5 30 14 12 24 21 23 6 0
5 30 14 12 24 27 29 6 0
5 30 14 13 19 18 26 6 0
5 30 14 13 27 9 11 6 0
5 30 14 13 27 21 23 6 0
5 30 14 13 27 24 26 6 0
5 30 14 15 9 7 26 6 0
5 30 14 15 21 18 26 6 0
5 30 14 15 21 19 29 6 0
5 30 14 15 24 7 11 6 0
5 30 14 15 24 18 23 6 0
5 30 14 15 27 19 23 6 0
5 30 20 18 12 13 29 6 0
5 30 20 18 24 9 11 6 0
5 30 20 18 24 15 17 6 0
5 30 20 18 24 27 29 6 0
5 30 20 19 13 12 26 6 0
5 30 20 19 27 9 11 6 0
5 30 20 19 27 15 17 6 0
5 30 20 19 27 24 26 6 0
5 30 20 21 9 7 26 6 0
5 30 20 21 15 12 26 6 0
5 30 20 21 15 13 29 6 0
5 30 20 21 24 7 11 6 0
5 30 20 21 24 12 17 6 0
5 30 20 21 27 13 17 6 0
7 12 13 19 22 30 31 11 0
7 12 13 19 23 31 30 10 0
7 12 13 27 21 20 30 10 0
7 12 13 27 21 20 31 11 0
7 12 13 27 21 22 30 8 0
7 12 13 27 21 23 31 8 0
7 12 13 28 22 20 31 11 0
7 12 13 28 22 23 31 8 0
7 12 13 28 30 20 21 9 0
7 12 13 28 30 20 23 11 0
7 12 13 29 23 20 30 10 0
7 12 13 29 23 22 30 8 0
7 12 13 29 31 20 21 9 0
7 12 13 29 31 20 22 10 0
7 12 14 20 21 27 28 10 0
7 12 14 20 21 27 29 11 0
7 12 14 20 22 28 27 9 0
7 12 14 20 22 28 29 11 0
7 12 14 20 23 29 27 9 0
7 12 14 20 23 29 28 10 0
7 12 14 30 22 19 27 9 0
7 12 14 30 22 19 29 11 0
7 12 14 30 28 19 21 9 0
7 12 14 30 28 19 23 11 0
7 12 14 31 23 19 27 9 0
7 12 14 31 23 19 28 10 0
7 12 14 31 29 19 21 9 0
7 12 14 31 29 19 22 10 0
7 12 15 21 19 28 30 8 0
7 12 15 21 19 29 31 8 0
7 12 15 21 22 28 29 11 0
7 12 15 21 22 30 31 11 0
7 12 15 21 23 29 28 10 0
7 12 15 21 23 31 30 10 0
7 12 15 27 19 20 30 10 0
7 12 15 27 19 20 31 11 0
7 12 15 27 19 22 30 8 0
7 12 15 27 19 23 31 8 0
7 12 15 27 28 22 20 8 0
7 12 15 27 28 22 23 11 0
7 12 15 27 28 30 31 11 0
7 12 15 27 29 23 20 8 0
7 12 15 27 29 23 22 10 0
7 12 15 27 29 31 30 10 0
7 12 16 22 19 29 31 8 0
7 12 16 22 21 27 29 11 0
7 12 16 22 23 29 27 9 0
7 12 16 28 19 20 31 11 0
7 12 16 28 19 23 31 8 0
7 12 16 28 27 21 20 8 0
7 12 16 28 27 21 23 11 0
7 12 16 28 29 23 20 8 0
7 12 16 28 29 23 21 9 0
7 12 16 30 20 19 27 9 0
7 12 16 30 20 19 29 11 0
7 12 16 30 31 23 21 9 0
7 12 16 30 31 29 27 9 0
7 12 17 23 19 28 30 8 0
7 12 17 23 21 27 28 10 0
7 12 17 23 22 28 27 9 0
7 12 17 29 19 20 30 10 0
7 12 17 29 19 22 30 8 0
7 12 17 29 27 21 20 8 0
7 12 17 29 27 21 22 10 0
7 12 17 29 28 22 20 8 0
7 12 17 29 28 22 21 9 0
7 12 17 31 20 19 27 9 0
7 12 17 31 20 19 28 10 0
7 12 17 31 30 22 21 9 0
7 12 17 31 30 28 27 9 0
7 18 19 13 16 30 31 11 0
7 18 19 13 17 31 30 10 0
7 18 19 27 15 14 30 10 0
7 18 19 27 15 14 31 11 0
7 18 19 27 15 16 30 8 0
7 18 19 27 15 17 31 8 0
7 18 19 28 16 14 31 11 0
7 18 19 28 16 17 31 8 0
7 18 19 28 30 14 15 9 0
7 18 19 28 30 14 17 11 0
7 18 19 29 17 14 30 10 0
7 18 19 29 17 16 30 8 0
7 18 19 29 31 14 15 9 0
7 18 19 29 31 14 16 10 0
7 18 20 14 15 27 28 10 0
7 18 20 14 15 27 29 11 0
7 18 20 14 16 28 27 9 0
7 18 20 14 16 28 29 11 0
7 18 20 14 17 29 27 9 0
7 18 20 14 17 29 28 10 0
7 18 20 30 16 13 27 9 0
7 18 20 30 16 13 29 11 0
7 18 20 30 28 13 15 9 0
7 18 20 30 28 13 17 11 0
7 18 20 31 17 13 27 9 0
7 18 20 31 17 13 28 10 0
7 18 20 31 29 13 15 9 0
7 18 20 31 29 13 16 10 0
7 18 21 15 13 28 30 8 0
7 18 21 15 13 29 31 8 0
7 18 21 15 16 28 29 11 0
7 18 21 15 16 30 31 11 0
7 18 21 15 17 29 28 10 0
7 18 21 15 17 31 30 10 0
7 18 21 27 13 14 30 10 0
7 18 21 27 13 14 31 11 0
7 18 21 27 13 16 30 8 0
7 18 21 27 13 17 31 8 0
7 18 21 27 28 16 14 8 0
7 18 21 27 28 16 17 11 0
7 18 21 27 28 30 31 11 0
7 18 21 27 29 17 14 8 0
7 18 21 27 29 17 16 10 0
7 18 21 27 29 31 30 10 0
7 18 22 16 13 29 31 8 0
7 18 22 16 15 27 29 11 0
7 18 22 16 17 29 27 9 0
7 18 22 28 13 14 31 11 0
7 18 22 28 13 17 31 8 0
7 18 22 28 27 15 14 8 0
7 18 22 28 27 15 17 11 0
7 18 22 28 29 17 14 8 0
7 18 22 28 29 17 15 9 0
7 18 22 30 14 13 27 9 0
7 18 22 30 14 13 29 11 0
7 18 22 30 31 17 15 9 0
7 18 22 30 31 29 27 9 0
7 18 23 17 13 28 30 8 0
7 18 23 17 15 27 28 10 0
7 18 23 17 16 28 27 9 0
7 18 23 29 13 14 30 10 0
7 18 23 29 13 16 30 8 0
7 18 23 29 27 15 14 8 0
7 18 23 29 27 15 16 10 0
7 18 23 29 28 16 14 8 0
7 18 23 29 28 16 15 9 0
7 18 23 31 14 13 27 9 0
7 18 23 31 14 13 28 10 0
7 18 23 31 30 16 15 9 0
7 18 23 31 30 28 27 9 0
7 24 15 13 19 20 30 10 0
7 24 15 13 19 20 31 11 0
7 24 15 13 19 22 30 8 0
7 24 15 13 19 23 31 8 0
7 24 15 13 28 22 20 8 0
7 24 15 13 28 22 23 11 0
7 24 15 13 28 30 31 11 0
7 24 15 13 29 23 20 8 0
7 24 15 13 29 23 22 10 0
7 24 15 13 29 31 30 10 0
7 24 15 14 20 19 28 10 0
7 24 15 14 20 19 29 11 0
7 24 15 14 30 22 23 11 0
7 24 15 14 30 28 29 11 0
7 24 15 14 31 23 22 10 0
7 24 15 14 31 29 28 10 0
7 24 15 16 22 19 29 11 0
7 24 15 16 22 20 31 11 0
7 24 15 16 22 23 31 8 0
7 24 15 16 28 19 20 8 0
7 24 15 16 28 19 23 11 0
7 24 15 16 28 29 31 8 0
7 24 15 16 30 20 23 11 0
7 24 15 17 23 19 28 10 0
7 24 15 17 23 20 30 10 0
7 24 15 17 23 22 30 8 0
7 24 15 17 29 19 20 8 0
7 24 15 17 29 19 22 10 0
7 24 15 17 29 28 30 8 0
7 24 15 17 31 20 22 10 0
7 24 21 19 13 14 30 10 0
7 24 21 19 13 14 31 11 0
7 24 21 19 13 16 30 8 0
7 24 21 19 13 17 31 8 0
7 24 21 19 28 16 14 8 0
7 24 21 19 28 16 17 11 0
7 24 21 19 28 30 31 11 0
7 24 21 19 29 17 14 8 0
7 24 21 19 29 17 16 10 0
7 24 21 19 29 31 30 10 0
7 24 21 20 14 13 28 10 0
7 24 21 20 14 13 29 11 0
7 24 21 20 30 16 17 11 0
7 24 21 20 30 28 29 11 0
7 24 21 20 31 17 16 10 0
7 24 21 20 31 29 28 10 0
7 24 21 22 16 13 29 11 0
7 24 21 22 16 14 31 11 0
7 24 21 22 16 17 31 8 0
7 24 21 22 28 13 14 8 0
7 24 21 22 28 13 17 11 0
7 24 21 22 28 29 31 8 0
7 24 21 22 30 14 17 11 0
7 24 21 23 17 13 28 10 0
7 24 21 23 17 14 30 10 0
7 24 21 23 17 16 30 8 0
7 24 21 23 29 13 14 8 0
7 24 21 23 29 13 16 10 0
7 24 21 23 29 28 30 8 0
7 24 21 23 31 14 16 10 0
7 24 27 13 14 20 22 10 0
7 24 27 13 14 20 23 11 0
7 24 27 13 16 22 20 8 0
7 24 27 13 16 22 23 11 0
7 24 27 13 16 30 31 11 0
7 24 27 13 17 23 20 8 0
7 24 27 13 17 23 22 10 0
7 24 27 13 17 31 30 10 0
7 24 27 19 20 14 16 10 0
7 24 27 19 20 14 17 11 0
7 24 27 19 22 16 14 8 0
7 24 27 19 22 16 17 11 0
7 24 27 19 22 30 31 11 0
7 24 27 19 23 17 14 8 0
7 24 27 19 23 17 16 10 0
7 24 27 19 23 31 30 10 0
7 24 27 28 16 14 31 11 0
7 24 27 28 16 17 31 8 0
7 24 27 28 22 20 31 11 0
7 24 27 28 22 23 31 8 0
7 24 27 28 30 14 17 11 0
7 24 27 28 30 20 23 11 0
7 24 27 29 17 14 30 10 0
7 24 27 29 17 16 30 8 0
7 24 27 29 23 20 30 10 0
7 24 27 29 23 22 30 8 0
7 24 27 29 31 14 16 10 0
7 24 27 29 31 20 22 10 0
7 25 16 13 19 20 31 11 0
7 25 16 13 19 23 31 8 0
7 25 16 13 27 21 20 8 0
7 25 16 13 27 21 23 11 0
7 25 16 13 29 23 20 8 0
7 25 16 13 29 23 21 9 0
7 25 16 14 20 19 27 9 0
7 25 16 14 20 19 29 11 0
7 25 16 14 31 23 21 9 0
7 25 16 14 31 29 27 9 0
7 25 16 15 21 19 29 11 0
7 25 16 15 21 20 31 11 0
7 25 16 15 21 23 31 8 0
7 25 16 15 27 19 20 8 0
7 25 16 15 27 19 23 11 0
7 25 16 15 27 29 31 8 0
7 25 16 17 23 19 27 9 0
7 25 16 17 29 19 20 8 0
7 25 16 17 29 19 21 9 0
7 25 16 17 31 20 21 9 0
7 25 22 19 13 14 31 11 0
7 25 22 19 13 17 31 8 0
7 25 22 19 27 15 14 8 0
7 25 22 19 27 15 17 11 0
7 25 22 19 29 17 14 8 0
7 25 22 19 29 17 15 9 0
7 25 22 20 14 13 27 9 0
7 25 22 20 14 13 29 11 0
7 25 22 20 31 17 15 9 0
7 25 22 20 31 29 27 9 0
7 25 22 21 15 13 29 11 0
7 25 22 21 15 14 31 11 0
7 25 22 21 15 17 31 8 0
7 25 22 21 27 13 14 8 0
7 25 22 21 27 13 17 11 0
7 25 22 21 27 29 31 8 0
7 25 22 23 17 13 27 9 0
7 25 22 23 29 13 14 8 0
7 25 22 23 29 13 15 9 0
7 25 22 23 31 14 15 9 0
7 25 28 13 14 20 21 9 0
7 25 28 13 14 20 23 11 0
7 25 28 13 15 21 20 8 0
7 25 28 13 15 21 23 11 0
7 25 28 13 17 23 20 8 0
7 25 28 13 17 23 21 9 0
7 25 28 19 20 14 15 9 0
7 25 28 19 20 14 17 11 0
7 25 28 19 21 15 14 8 0
7 25 28 19 21 15 17 11 0
7 25 28 19 23 17 14 8 0
7 25 28 19 23 17 15 9 0
7 25 28 27 15 14 31 11 0
7 25 28 27 15 17 31 8 0
7 25 28 27 21 20 31 11 0
7 25 28 27 21 23 31 8 0
7 25 28 29 31 14 15 9 0
7 25 28 29 31 20 21 9 0
7 25 30 14 13 19 21 9 0
7 25 30 14 13 19 23 11 0
7 25 30 14 15 21 23 11 0
7 25 30 14 15 27 29 11 0
7 25 30 14 17 23 21 9 0
7 25 30 14 17 29 27 9 0
7 25 30 20 19 13 15 9 0
7 25 30 20 19 13 17 11 0
7 25 30 20 21 15 17 11 0
7 25 30 20 21 27 29 11 0
7 25 30 20 23 17 15 9 0
7 25 30 20 23 29 27 9 0
7 25 30 31 17 13 27 9 0
7 25 30 31 23 19 27 9 0
7 25 30 31 29 13 15 9 0
7 25 30 31 29 19 21 9 0
7 26 17 13 19 20 30 10 0
7 26 17 13 19 22 30 8 0
7 26 17 13 27 21 20 8 0
7 26 17 13 27 21 22 10 0
7 26 17 13 28 22 20 8 0
7 26 17 13 28 22 21 9 0
7 26 17 14 20 19 27 9 0
7 26 17 14 20 19 28 10 0
7 26 17 14 30 22 21 9 0
7 26 17 14 30 28 27 9 0
7 26 17 15 21 19 28 10 0
7 26 17 15 21 20 30 10 0
7 26 17 15 21 22 30 8 0
7 26 17 15 27 19 20 8 0
7 26 17 15 27 19 22 10 0
7 26 17 15 27 28 30 8 0
7 26 17 16 22 19 27 9 0
7 26 17 16 28 19 20 8 0
7 26 17 16 28 19 21 9 0
7 26 17 16 30 20 21 9 0
7 26 23 19 13 14 30 10 0
7 26 23 19 13 16 30 8 0
7 26 23 19 27 15 14 8 0
7 26 23 19 27 15 16 10 0
7 26 23 19 28 16 14 8 0
7 26 23 19 28 16 15 9 0
7 26 23 20 14 13 27 9 0
7 26 23 20 14 13 28 10 0
7 26 23 20 30 16 15 9 0
7 26 23 20 30 28 27 9 0
7 26 23 21 15 13 28 10 0
7 26 23 21 15 14 30 10 0
7 26 23 21 15 16 30 8 0
7 26 23 21 27 13 14 8 0
7 26 23 21 27 13 16 10 0
7 26 23 21 27 28 30 8 0
7 26 23 22 16 13 27 9 0
7 26 23 22 28 13 14 8 0
7 26 23 22 28 13 15 9 0
7 26 23 22 30 14 15 9 0
7 26 29 13 14 20 21 9 0
7 26 29 13 14 20 22 10 0
7 26 29 13 15 21 20 8 0
7 26 29 13 15 21 22 10 0
7 26 29 13 16 22 20 8 0
7 26 29 13 16 22 21 9 0
7 26 29 19 20 14 15 9 0
7 26 29 19 20 14 16 10 0
7 26 29 19 21 15 14 8 0
7 26 29 19 21 15 16 10 0
7 26 29 19 22 16 14 8 0
7 26 29 19 22 16 15 9 0
7 26 29 27 15 14 30 10 0
7 26 29 27 15 16 30 8 0
7 26 29 27 21 20 30 10 0
7 26 29 27 21 22 30 8 0
7 26 29 28 30 14 15 9 0
7 26 29 28 30 20 21 9 0
7 26 31 14 13 19 21 9 0
7 26 31 14 13 19 22 10 0
7 26 31 14 15 21 22 10 0
7 26 31 14 15 27 28 10 0
7 26 31 14 16 22 21 9 0
7 26 31 14 16 28 27 9 0
7 26 31 20 19 13 15 9 0
7 26 31 20 19 13 16 10 0
7 26 31 20 21 15 16 10 0
7 26 31 20 21 27 28 10 0
7 26 31 20 22 16 15 9 0
7 26 31 20 22 28 27 9 0
7 26 31 30 16 13 27 9 0
7 26 31 30 22 19 27 9 0
7 26 31 30 28 13 15 9 0
7 26 31 30 28 19 21 9 0
8 14 12 18 21 27 28 10 0
8 14 12 18 21 27 29 11 0
8 14 12 18 22 28 27 9 0
8 14 12 18 22 28 29 11 0
8 14 12 18 23 29 27 9 0
8 14 12 18 23 29 28 10 0
8 14 12 24 21 19 28 10 0
8 14 12 24 21 19 29 11 0
8 14 12 24 27 19 22 10 0
8 14 12 24 27 19 23 11 0
8 14 12 25 22 19 27 9 0
8 14 12 25 22 19 29 11 0
8 14 12 25 28 19 21 9 0
8 14 12 25 28 19 23 11 0
8 14 12 26 23 19 27 9 0
8 14 12 26 23 19 28 10 0
8 14 12 26 29 19 21 9 0
8 14 12 26 29 19 22 10 0
8 14 13 19 21 24 25 10 0
8 14 13 19 21 24 26 11 0
8 14 13 19 22 25 24 9 0
8 14 13 19 22 25 26 11 0
8 14 13 19 23 26 24 9 0
8 14 13 19 23 26 25 10 0
8 14 13 27 21 18 25 10 0
8 14 13 27 21 18 26 11 0
8 14 13 27 24 18 22 10 0
8 14 13 27 24 18 23 11 0
8 14 13 28 22 18 24 9 0
8 14 13 28 22 18 26 11 0
8 14 13 28 25 18 21 9 0
8 14 13 28 25 18 23 11 0
8 14 13 29 23 18 24 9 0
8 14 13 29 23 18 25 10 0
8 14 13 29 26 18 21 9 0
8 14 13 29 26 18 22 10 0
8 14 15 21 22 25 26 11 0
8 14 15 21 22 28 29 11 0
8 14 15 21 23 26 25 10 0
8 14 15 21 23 29 28 10 0
8 14 15 24 18 19 28 10 0
8 14 15 24 18 19 29 11 0
8 14 15 24 25 22 23 11 0
8 14 15 24 25 28 29 11 0
8 14 15 24 26 23 22 10 0
8 14 15 24 26 29 28 10 0
8 14 15 27 19 18 25 10 0
8 14 15 27 19 18 26 11 0
8 14 15 27 28 22 23 11 0
8 14 15 27 28 25 26 11 0
8 14 15 27 29 23 22 10 0
8 14 15 27 29 26 25 10 0
8 14 16 22 21 24 26 11 0
8 14 16 22 21 27 29 11 0
8 14 16 22 23 26 24 9 0
8 14 16 22 23 29 27 9 0
8 14 16 25 18 19 27 9 0
8 14 16 25 18 19 29 11 0
8 14 16 25 24 21 23 11 0
8 14 16 25 24 27 29 11 0
8 14 16 25 26 23 21 9 0
8 14 16 25 26 29 27 9 0
8 14 16 28 19 18 24 9 0
8 14 16 28 19 18 26 11 0
8 14 16 28 27 21 23 11 0
8 14 16 28 27 24 26 11 0
8 14 16 28 29 23 21 9 0
8 14 16 28 29 26 24 9 0
8 14 17 23 21 24 25 10 0
8 14 17 23 21 27 28 10 0
8 14 17 23 22 25 24 9 0
8 14 17 23 22 28 27 9 0
8 14 17 26 18 19 27 9 0
8 14 17 26 18 19 28 10 0
8 14 17 26 24 21 22 10 0
8 14 17 26 24 27 28 10 0
8 14 17 26 25 22 21 9 0
8 14 17 26 25 28 27 9 0
8 14 17 29 19 18 24 9 0
8 14 17 29 19 18 25 10 0
8 14 17 29 27 21 22 10 0
8 14 17 29 27 24 25 10 0
8 14 17 29 28 22 21 9 0
8 14 17 29 28 25 24 9 0
8 20 18 12 15 27 28 10 0
8 20 18 12 15 27 29 11 0
8 20 18 12 16 28 27 9 0
8 20 18 12 16 28 29 11 0
8 20 18 12 17 29 27 9 0
8 20 18 12 17 29 28 10 0
8 20 18 24 15 13 28 10 0
8 20 18 24 15 13 29 11 0
8 20 18 24 27 13 16 10 0
8 20 18 24 27 13 17 11 0
8 20 18 25 16 13 27 9 0
8 20 18 25 16 13 29 11 0
8 20 18 25 28 13 15 9 0
8 20 18 25 28 13 17 11 0
8 20 18 26 17 13 27 9 0
8 20 18 26 17 13 28 10 0
8 20 18 26 29 13 15 9 0
8 20 18 26 29 13 16 10 0
8 20 19 13 15 24 25 10 0
8 20 19 13 15 24 26 11 0
8 20 19 13 16 25 24 9 0
8 20 19 13 16 25 26 11 0
8 20 19 13 17 26 24 9 0
8 20 19 13 17 26 25 10 0
8 20 19 27 15 12 25 10 0
8 20 19 27 15 12 26 11 0
8 20 19 27 24 12 16 10 0
8 20 19 27 24 12 17 11 0
8 20 19 28 16 12 24 9 0
8 20 19 28 16 12 26 11 0
8 20 19 28 25 12 15 9 0
8 20 19 28 25 12 17 11 0
8 20 19 29 17 12 24 9 0
8 20 19 29 17 12 25 10 0
8 20 19 29 26 12 15 9 0
8 20 19 29 26 12 16 10 0
8 20 21 15 16 25 26 11 0
8 20 21 15 16 28 29 11 0
8 20 21 15 17 26 25 10 0
8 20 21 15 17 29 28 10 0
8 20 21 24 12 13 28 10 0
8 20 21 24 12 13 29 11 0
8 20 21 24 25 16 17 11 0
8 20 21 24 25 28 29 11 0
8 20 21 24 26 17 16 10 0
8 20 21 24 26 29 28 10 0
8 20 21 27 13 12 25 10 0
8 20 21 27 13 12 26 11 0
8 20 21 27 28 16 17 11 0
8 20 21 27 28 25 26 11 0
8 20 21 27 29 17 16 10 0
8 20 21 27 29 26 25 10 0
8 20 22 16 15 24 26 11 0
8 20 22 16 15 27 29 11 0
8 20 22 16 17 26 24 9 0
8 20 22 16 17 29 27 9 0
8 20 22 25 12 13 27 9 0
8 20 22 25 12 13 29 11 0
8 20 22 25 24 15 17 11 0
8 20 22 25 24 27 29 11 0
8 20 22 25 26 17 15 9 0
8 20 22 25 26 29 27 9 0
8 20 22 28 13 12 24 9 0
8 20 22 28 13 12 26 11 0
8 20 22 28 27 15 17 11 0
8 20 22 28 27 24 26 11 0
8 20 22 28 29 17 15 9 0
8 20 22 28 29 26 24 9 0
8 20 23 17 15 24 25 10 0
8 20 23 17 15 27 28 10 0
8 20 23 17 16 25 24 9 0
8 20 23 17 16 28 27 9 0
8 20 23 26 12 13 27 9 0
8 20 23 26 12 13 28 10 0
8 20 23 26 24 15 16 10 0
8 20 23 26 24 27 28 10 0
8 20 23 26 25 16 15 9 0
8 20 23 26 25 28 27 9 0
8 20 23 29 13 12 24 9 0
8 20 23 29 13 12 25 10 0
8 20 23 29 27 15 16 10 0
8 20 23 29 27 24 25 10 0
8 20 23 29 28 16 15 9 0
8 20 23 29 28 25 24 9 0
8 30 16 12 18 19 27 9 0
8 30 16 12 18 19 29 11 0
8 30 16 12 24 21 23 11 0
8 30 16 12 24 27 29 11 0
8 30 16 12 26 23 21 9 0
8 30 16 12 26 29 27 9 0
8 30 16 13 19 18 24 9 0
8 30 16 13 19 18 26 11 0
8 30 16 13 27 21 23 11 0
8 30 16 13 27 24 26 11 0
8 30 16 13 29 23 21 9 0
8 30 16 13 29 26 24 9 0
8 30 16 15 21 18 26 11 0
8 30 16 15 21 19 29 11 0
8 30 16 15 24 18 23 11 0
8 30 16 15 27 19 23 11 0
8 30 16 17 23 18 24 9 0
8 30 16 17 23 19 27 9 0
8 30 16 17 26 18 21 9 0
8 30 16 17 29 19 21 9 0
8 30 22 18 12 13 27 9 0
8 30 22 18 12 13 29 11 0
8 30 22 18 24 15 17 11 0
8 30 22 18 24 27 29 11 0
8 30 22 18 26 17 15 9 0
8 30 22 18 26 29 27 9 0
8 30 22 19 13 12 24 9 0
8 30 22 19 13 12 26 11 0
8 30 22 19 27 15 17 11 0
8 30 22 19 27 24 26 11 0
8 30 22 19 29 17 15 9 0
8 30 22 19 29 26 24 9 0
8 30 22 21 15 12 26 11 0
8 30 22 21 15 13 29 11 0
8 30 22 21 24 12 17 11 0
8 30 22 21 27 13 17 11 0
8 30 22 23 17 12 24 9 0
8 30 22 23 17 13 27 9 0
8 30 22 23 26 12 15 9 0
8 30 22 23 29 13 15 9 0
8 30 25 12 13 19 21 9 0
8 30 25 12 13 19 23 11 0
8 30 25 12 15 21 23 11 0
8 30 25 12 15 27 29 11 0
8 30 25 12 17 23 21 9 0
8 30 25 12 17 29 27 9 0
8 30 25 18 19 13 15 9 0
8 30 25 18 19 13 17 11 0
8 30 25 18 21 15 17 11 0
8 30 25 18 21 27 29 11 0
8 30 25 18 23 17 15 9 0
8 30 25 18 23 29 27 9 0
8 30 25 24 15 13 29 11 0
8 30 25 24 21 19 29 11 0
8 30 25 24 27 13 17 11 0
8 30 25 24 27 19 23 11 0
8 30 25 26 17 13 27 9 0
8 30 25 26 23 19 27 9 0
8 30 25 26 29 13 15 9 0
8 30 25 26 29 19 21 9 0
8 30 28 13 12 18 21 9 0
8 30 28 13 12 18 23 11 0
8 30 28 13 15 21 23 11 0
8 30 28 13 15 24 26 11 0
8 30 28 13 17 23 21 9 0
8 30 28 13 17 26 24 9 0
8 30 28 19 18 12 15 9 0
8 30 28 19 18 12 17 11 0
8 30 28 19 21 15 17 11 0
8 30 28 19 21 24 26 11 0
8 30 28 19 23 17 15 9 0
8 30 28 19 23 26 24 9 0
8 30 28 27 15 12 26 11 0
8 30 28 27 21 18 26 11 0
8 30 28 27 24 12 17 11 0
8 30 28 27 24 18 23 11 0
8 30 28 29 17 12 24 9 0
8 30 28 29 23 18 24 9 0
8 30 28 29 26 12 15 9 0
8 30 28 29 26 18 21 9 0
8 31 17 12 18 19 27 9 0
8 31 17 12 18 19 28 10 0
8 31 17 12 24 21 22 10 0
8 31 17 12 24 27 28 10 0
8 31 17 12 25 22 21 9 0
8 31 17 12 25 28 27 9 0
8 31 17 13 19 18 24 9 0
8 31 17 13 19 18 25 10 0
8 31 17 13 27 21 22 10 0
8 31 17 13 27 24 25 10 0
8 31 17 13 28 22 21 9 0
8 31 17 13 28 25 24 9 0
8 31 17 15 21 18 25 10 0
8 31 17 15 21 19 28 10 0
8 31 17 15 24 18 22 10 0
8 31 17 15 27 19 22 10 0
8 31 17 16 22 18 24 9 0
8 31 17 16 22 19 27 9 0
8 31 17 16 25 18 21 9 0
8 31 17 16 28 19 21 9 0
8 31 23 18 12 13 27 9 0
8 31 23 18 12 13 28 10 0
8 31 23 18 24 15 16 10 0
8 31 23 18 24 27 28 10 0
8 31 23 18 25 16 15 9 0
8 31 23 18 25 28 27 9 0
8 31 23 19 13 12 24 9 0
8 31 23 19 13 12 25 10 0
8 31 23 19 27 15 16 10 0
8 31 23 19 27 24 25 10 0
8 31 23 19 28 16 15 9 0
8 31 23 19 28 25 24 9 0
8 31 23 21 15 12 25 10 0
8 31 23 21 15 13 28 10 0
8 31 23 21 24 12 16 10 0
8 31 23 21 27 13 16 10 0
8 31 23 22 16 12 24 9 0
8 31 23 22 16 13 27 9 0
8 31 23 22 25 12 15 9 0
8 31 23 22 28 13 15 9 0
8 31 26 12 13 19 21 9 0
8 31 26 12 13 19 22 10 0
8 31 26 12 15 21 22 10 0
8 31 26 12 15 27 28 10 0
8 31 26 12 16 22 21 9 0
8 31 26 12 16 28 27 9 0
8 31 26 18 19 13 15 9 0
8 31 26 18 19 13 16 10 0
8 31 26 18 21 15 16 10 0
8 31 26 18 21 27 28 10 0
8 31 26 18 22 16 15 9 0
8 31 26 18 22 28 27 9 0
8 31 26 24 15 13 28 10 0
8 31 26 24 21 19 28 10 0
8 31 26 24 27 13 16 10 0
8 31 26 24 27 19 22 10 0
8 31 26 25 16 13 27 9 0
8 31 26 25 22 19 27 9 0
8 31 26 25 28 13 15 9 0
8 31 26 25 28 19 21 9 0
8 31 29 13 12 18 21 9 0
8 31 29 13 12 18 22 10 0
8 31 29 13 15 21 22 10 0
8 31 29 13 15 24 25 10 0
8 31 29 13 16 22 21 9 0
8 31 29 13 16 25 24 9 0
8 31 29 19 18 12 15 9 0
8 31 29 19 18 12 16 10 0
8 31 29 19 21 15 16 10 0
8 31 29 19 21 24 25 10 0
8 31 29 19 22 16 15 9 0
8 31 29 19 22 25 24 9 0
8 31 29 27 15 12 25 10 0
8 31 29 27 21 18 25 10 0
8 31 29 27 24 12 16 10 0
8 31 29 27 24 18 22 10 0
8 31 29 28 16 12 24 9 0
8 31 29 28 22 18 24 9 0
8 31 29 28 25 12 15 9 0
8 31 29 28 25 18 21 9 0
9 15 12 18 22 28 29 11 0
9 15 12 18 22 30 31 11 0
9 15 12 18 23 29 28 10 0
9 15 12 18 23 31 30 10 0
9 15 12 25 22 19 29 11 0
9 15 12 25 22 20 31 11 0
9 15 12 25 28 19 23 11 0
9 15 12 25 30 20 23 11 0
9 15 12 26 23 19 28 10 0
9 15 12 26 23 20 30 10 0
9 15 12 26 29 19 22 10 0
9 15 12 26 31 20 22 10 0
9 15 13 19 22 25 26 11 0
9 15 13 19 22 30 31 11 0
9 15 13 19 23 26 25 10 0
9 15 13 19 23 31 30 10 0
9 15 13 28 22 18 26 11 0
9 15 13 28 22 20 31 11 0
9 15 13 28 25 18 23 11 0
9 15 13 28 30 20 23 11 0
9 15 13 29 23 18 25 10 0
9 15 13 29 23 20 30 10 0
9 15 13 29 26 18 22 10 0
9 15 13 29 31 20 22 10 0
9 15 14 20 22 25 26 11 0
9 15 14 20 22 28 29 11 0
9 15 14 20 23 26 25 10 0
9 15 14 20 23 29 28 10 0
9 15 14 30 22 18 26 11 0
9 15 14 30 22 19 29 11 0
9 15 14 30 25 18 23 11 0
9 15 14 30 28 19 23 11 0
9 15 14 31 23 18 25 10 0
9 15 14 31 23 19 28 10 0
9 15 14 31 26 18 22 10 0
9 15 14 31 29 19 22 10 0
9 15 16 25 18 19 29 11 0
9 15 16 25 18 20 31 11 0
9 15 16 28 19 18 26 11 0
9 15 16 28 19 20 31 11 0
9 15 16 30 20 18 26 11 0
9 15 16 30 20 19 29 11 0
9 15 17 26 18 19 28 10 0
9 15 17 26 18 20 30 10 0
9 15 17 29 19 18 25 10 0
9 15 17 29 19 20 30 10 0
9 15 17 31 20 18 25 10 0
9 15 17 31 20 19 28 10 0
9 21 18 12 16 28 29 11 0
9 21 18 12 16 30 31 11 0
9 21 18 12 17 29 28 10 0
9 21 18 12 17 31 30 10 0
9 21 18 25 16 13 29 11 0
9 21 18 25 16 14 31 11 0
9 21 18 25 28 13 17 11 0
9 21 18 25 30 14 17 11 0
9 21 18 26 17 13 28 10 0
9 21 18 26 17 14 30 10 0
9 21 18 26 29 13 16 10 0
9 21 18 26 31 14 16 10 0
9 21 19 13 16 25 26 11 0
9 21 19 13 16 30 31 11 0
9 21 19 13 17 26 25 10 0
9 21 19 13 17 31 30 10 0
9 21 19 28 16 12 26 11 0
9 21 19 28 16 14 31 11 0
9 21 19 28 25 12 17 11 0
9 21 19 28 30 14 17 11 0
9 21 19 29 17 12 25 10 0
9 21 19 29 17 14 30 10 0
9 21 19 29 26 12 16 10 0
9 21 19 29 31 14 16 10 0
9 21 20 14 16 25 26 11 0
9 21 20 14 16 28 29 11 0
9 21 20 14 17 26 25 10 0
9 21 20 14 17 29 28 10 0
9 21 20 30 16 12 26 11 0
9 21 20 30 16 13 29 11 0
9 21 20 30 25 12 17 11 0
9 21 20 30 28 13 17 11 0
9 21 20 31 17 12 25 10 0
9 21 20 31 17 13 28 10 0
9 21 20 31 26 12 16 10 0
9 21 20 31 29 13 16 10 0
9 21 22 25 12 13 29 11 0
9 21 22 25 12 14 31 11 0
9 21 22 28 13 12 26 11 0
9 21 22 28 13 14 31 11 0
9 21 22 30 14 12 26 11 0
9 21 22 30 14 13 29 11 0
9 21 23 26 12 13 28 10 0
9 21 23 26 12 14 30 10 0
9 21 23 29 13 12 25 10 0
9 21 23 29 13 14 30 10 0
9 21 23 31 14 12 25 10 0
9 21 23 31 14 13 28 10 0
9 24 12 13 19 20 30 10 0
9 24 12 13 19 20 31 11 0
9 24 12 13 28 22 23 11 0
9 24 12 13 28 30 31 11 0
9 24 12 13 29 23 22 10 0
9 24 12 13 29 31 30 10 0
9 24 12 14 20 19 28 10 0
9 24 12 14 20 19 29 11 0
9 24 12 14 30 22 23 11 0
9 24 12 14 30 28 29 11 0
9 24 12 14 31 23 22 10 0
9 24 12 14 31 29 28 10 0
9 24 12 16 22 19 29 11 0
9 24 12 16 22 20 31 11 0
9 24 12 16 28 19 23 11 0
9 24 12 16 30 20 23 11 0
9 24 12 17 23 19 28 10 0
9 24 12 17 23 20 30 10 0
9 24 12 17 29 19 22 10 0
9 24 12 17 31 20 22 10 0
9 24 18 19 13 14 30 10 0
9 24 18 19 13 14 31 11 0
9 24 18 19 28 16 17 11 0
9 24 18 19 28 30 31 11 0
9 24 18 19 29 17 16 10 0
9 24 18 19 29 31 30 10 0
9 24 18 20 14 13 28 10 0
9 24 18 20 14 13 29 11 0
9 24 18 20 30 16 17 11 0
9 24 18 20 30 28 29 11 0
9 24 18 20 31 17 16 10 0
9 24 18 20 31 29 28 10 0
9 24 18 22 16 13 29 11 0
9 24 18 22 16 14 31 11 0
9 24 18 22 28 13 17 11 0
9 24 18 22 30 14 17 11 0
9 24 18 23 17 13 28 10 0
9 24 18 23 17 14 30 10 0
9 24 18 23 29 13 16 10 0
9 24 18 23 31 14 16 10 0
9 24 25 16 13 19 23 11 0
9 24 25 16 14 20 23 11 0
9 24 25 22 19 13 17 11 0
9 24 25 22 20 14 17 11 0
9 24 25 28 13 14 31 11 0
9 24 25 28 19 20 31 11 0
9 24 25 30 14 13 29 11 0
9 24 25 30 20 19 29 11 0
9 24 26 17 13 19 22 10 0
9 24 26 17 14 20 22 10 0
9 24 26 23 19 13 16 10 0
9 24 26 23 20 14 16 10 0
9 24 26 29 13 14 30 10 0
9 24 26 29 19 20 30 10 0
9 24 26 31 14 13 28 10 0
9 24 26 31 20 19 28 10 0
9 27 13 12 18 20 30 10 0
9 27 13 12 18 20 31 11 0
9 27 13 12 25 22 23 11 0
9 27 13 12 25 30 31 11 0
9 27 13 12 26 23 22 10 0
9 27 13 12 26 31 30 10 0
9 27 13 14 20 18 25 10 0
9 27 13 14 20 18 26 11 0
9 27 13 14 30 22 23 11 0
9 27 13 14 30 25 26 11 0
9 27 13 14 31 23 22 10 0
9 27 13 14 31 26 25 10 0
9 27 13 16 22 18 26 11 0
9 27 13 16 22 20 31 11 0
9 27 13 16 25 18 23 11 0
9 27 13 16 30 20 23 11 0
9 27 13 17 23 18 25 10 0
9 27 13 17 23 20 30 10 0
9 27 13 17 26 18 22 10 0
9 27 13 17 31 20 22 10 0
9 27 19 18 12 14 30 10 0
9 27 19 18 12 14 31 11 0
9 27 19 18 25 16 17 11 0
9 27 19 18 25 30 31 11 0
9 27 19 18 26 17 16 10 0
9 27 19 18 26 31 30 10 0
9 27 19 20 14 12 25 10 0
9 27 19 20 14 12 26 11 0
9 27 19 20 30 16 17 11 0
9 27 19 20 30 25 26 11 0
9 27 19 20 31 17 16 10 0
9 27 19 20 31 26 25 10 0
9 27 19 22 16 12 26 11 0
9 27 19 22 16 14 31 11 0
9 27 19 22 25 12 17 11 0
9 27 19 22 30 14 17 11 0
9 27 19 23 17 12 25 10 0
9 27 19 23 17 14 30 10 0
9 27 19 23 26 12 16 10 0
9 27 19 23 31 14 16 10 0
9 27 28 16 12 18 23 11 0
9 27 28 16 14 20 23 11 0
9 27 28 22 18 12 17 11 0
9 27 28 22 20 14 17 11 0
9 27 28 25 12 14 31 11 0
9 27 28 25 18 20 31 11 0
9 27 28 30 14 12 26 11 0
9 27 28 30 20 18 26 11 0
9 27 29 17 12 18 22 10 0
9 27 29 17 14 20 22 10 0
9 27 29 23 18 12 16 10 0
9 27 29 23 20 14 16 10 0
9 27 29 26 12 14 30 10 0
9 27 29 26 18 20 30 10 0
9 27 29 31 14 12 25 10 0
9 27 29 31 20 18 25 10 0
10 16 12 18 21 27 29 11 0
10 16 12 24 21 19 29 11 0
10 16 12 24 21 20 31 11 0
10 16 12 24 27 19 23 11 0
10 16 13 19 21 24 26 11 0
10 16 13 27 21 18 26 11 0
10 16 13 27 21 20 31 11 0
10 16 13 27 24 18 23 11 0
10 16 14 20 21 24 26 11 0
10 16 14 20 21 27 29 11 0
10 16 15 24 18 19 29 11 0
10 16 15 24 18 20 31 11 0
10 16 15 27 19 18 26 11 0
10 16 15 27 19 20 31 11 0
10 22 18 12 15 27 29 11 0
10 22 18 24 15 13 29 11 0
10 22 18 24 15 14 31 11 0
10 22 18 24 27 13 17 11 0
10 22 19 13 15 24 26 11 0
10 22 19 27 15 12 26 11 0
10 22 19 27 15 14 31 11 0
10 22 19 27 24 12 17 11 0
10 22 20 14 15 24 26 11 0
10 22 20 14 15 27 29 11 0
10 22 21 24 12 13 29 11 0
10 22 21 24 12 14 31 11 0
10 22 21 27 13 12 26 11 0
10 22 21 27 13 14 31 11 0
10 25 12 13 19 20 31 11 0
10 25 12 13 27 21 23 11 0
10 25 12 14 20 19 29 11 0
10 25 12 15 21 19 29 11 0
10 25 12 15 21 20 31 11 0
10 25 12 15 27 19 23 11 0
10 25 18 19 13 14 31 11 0
10 25 18 19 27 15 17 11 0
10 25 18 20 14 13 29 11 0
10 25 18 21 15 13 29 11 0
10 25 18 21 15 14 31 11 0
10 25 18 21 27 13 17 11 0
10 25 24 15 13 19 23 11 0
10 25 24 15 14 20 23 11 0
10 25 24 21 19 13 17 11 0
10 25 24 21 20 14 17 11 0
10 25 24 27 13 14 31 11 0
10 25 24 27 19 20 31 11 0
10 28 13 12 18 20 31 11 0
10 28 13 12 24 21 23 11 0
10 28 13 14 20 18 26 11 0
10 28 13 15 21 18 26 11 0
10 28 13 15 21 20 31 11 0
10 28 13 15 24 18 23 11 0
10 28 19 18 12 14 31 11 0
10 28 19 18 24 15 17 11 0
10 28 19 20 14 12 26 11 0
10 28 19 21 15 12 26 11 0
10 28 19 21 15 14 31 11 0
10 28 19 21 24 12 17 11 0
10 28 27 15 12 18 23 11 0
10 28 27 15 14 20 23 11 0
10 28 27 21 18 12 17 11 0
10 28 27 21 20 14 17 11 0
10 28 27 24 12 14 31 11 0
10 28 27 24 18 20 31 11 0
10 30 14 12 18 19 29 11 0
10 30 14 12 24 21 23 11 0
10 30 14 12 24 27 29 11 0
10 30 14 13 19 18 26 11 0
10 30 14 13 27 21 23 11 0
10 30 14 13 27 24 26 11 0
10 30 14 15 21 18 26 11 0
10 30 14 15 21 19 29 11 0
10 30 14 15 24 18 23 11 0
10 30 14 15 27 19 23 11 0
10 30 20 18 12 13 29 11 0
10 30 20 18 24 15 17 11 0
10 30 20 18 24 27 29 11 0
10 30 20 19 13 12 26 11 0
10 30 20 19 27 15 17 11 0
10 30 20 19 27 24 26 11 0
10 30 20 21 15 12 26 11 0
10 30 20 21 15 13 29 11 0
10 30 20 21 24 12 17 11 0
10 30 20 21 27 13 17 11 0
12 18 21 27 28 30 31 17 0
12 18 21 27 29 31 30 16 0
12 18 22 30 31 29 27 15 0
12 18 23 31 30 28 27 15 0
12 24 21 19 28 30 31 17 0
12 24 21 19 29 31 30 16 0
12 24 21 20 30 28 29 17 0
12 24 21 20 31 29 28 16 0
12 24 21 22 28 29 31 14 0
12 24 21 22 30 31 29 13 0
12 24 21 23 29 28 30 14 0
12 24 21 23 31 30 28 13 0
12 24 27 19 22 30 31 17 0
12 24 27 19 23 31 30 16 0
12 24 27 28 22 20 31 17 0
12 24 27 28 22 23 31 14 0
12 24 27 28 30 20 23 17 0
12 24 27 29 23 20 30 16 0
12 24 27 29 23 22 30 14 0
12 24 27 29 31 20 22 16 0
12 25 22 20 31 29 27 15 0
12 25 22 21 27 29 31 14 0
12 25 28 27 21 20 31 17 0
12 25 28 27 21 23 31 14 0
12 25 28 29 31 20 21 15 0
12 25 30 20 21 27 29 17 0
12 25 30 20 23 29 27 15 0
12 25 30 31 23 19 27 15 0
12 25 30 31 23 21 27 13 0
12 25 30 31 29 19 21 15 0
12 26 23 20 30 28 27 15 0
12 26 23 21 27 28 30 14 0
12 26 29 27 21 20 30 16 0
12 26 29 27 21 22 30 14 0
12 26 29 28 30 20 21 15 0
12 26 31 20 21 27 28 16 0
12 26 31 20 22 28 27 15 0
12 26 31 30 22 19 27 15 0
12 26 31 30 22 21 27 13 0
12 26 31 30 28 19 21 15 0
13 19 21 24 25 30 31 17 0
13 19 21 24 26 31 30 16 0
13 19 22 30 31 26 24 15 0
13 19 23 31 30 25 24 15 0
13 27 21 18 25 30 31 17 0
13 27 21 18 26 31 30 16 0
13 27 21 20 30 25 26 17 0
13 27 21 20 31 26 25 16 0
13 27 21 22 25 26 31 14 0
13 27 21 23 26 25 30 14 0
13 27 24 18 22 30 31 17 0
13 27 24 18 23 31 30 16 0
13 27 24 25 22 20 31 17 0
13 27 24 25 22 23 31 14 0
13 27 24 25 30 20 23 17 0
13 27 24 26 23 20 30 16 0
13 27 24 26 23 22 30 14 0
13 27 24 26 31 20 22 16 0
13 28 22 20 31 26 24 15 0
13 28 22 21 24 26 31 14 0
13 28 25 24 21 20 31 17 0
13 28 25 24 21 23 31 14 0
13 28 25 26 31 20 21 15 0
13 28 30 20 21 24 26 17 0
13 28 30 20 23 26 24 15 0
13 28 30 31 23 18 24 15 0
13 28 30 31 26 18 21 15 0
13 29 23 20 30 25 24 15 0
13 29 23 21 24 25 30 14 0
13 29 26 24 21 20 30 16 0
13 29 26 24 21 22 30 14 0
13 29 26 25 30 20 21 15 0
13 29 31 20 21 24 25 16 0
13 29 31 20 22 25 24 15 0
13 29 31 30 22 18 24 15 0
13 29 31 30 25 18 21 15 0
14 20 21 24 25 28 29 17 0
14 20 21 24 26 29 28 16 0
14 20 21 27 28 25 26 17 0
14 20 21 27 29 26 25 16 0
14 20 22 25 24 27 29 17 0
14 20 22 25 26 29 27 15 0
14 20 22 28 27 24 26 17 0
14 20 22 28 29 26 24 15 0
14 20 23 26 24 27 28 16 0
14 20 23 26 25 28 27 15 0
14 20 23 29 27 24 25 16 0
14 20 23 29 28 25 24 15 0
14 30 22 18 24 27 29 17 0
14 30 22 18 26 29 27 15 0
14 30 22 19 27 24 26 17 0
14 30 22 19 29 26 24 15 0
14 30 25 18 21 27 29 17 0
14 30 25 18 23 29 27 15 0
14 30 25 24 21 19 29 17 0
14 30 25 24 27 19 23 17 0
14 30 25 26 23 19 27 15 0
14 30 25 26 29 19 21 15 0
14 30 28 19 21 24 26 17 0
14 30 28 19 23 26 24 15 0
14 30 28 27 21 18 26 17 0
14 30 28 27 24 18 23 17 0
14 30 28 29 23 18 24 15 0
14 30 28 29 26 18 21 15 0
14 31 23 18 24 27 28 16 0
14 31 23 18 25 28 27 15 0
14 31 23 19 27 24 25 16 0
14 31 23 19 28 25 24 15 0
14 31 26 18 21 27 28 16 0
14 31 26 18 22 28 27 15 0
14 31 26 24 21 19 28 16 0
14 31 26 24 27 19 22 16 0
14 31 26 25 22 19 27 15 0
14 31 26 25 28 19 21 15 0
14 31 29 19 21 24 25 16 0
14 31 29 19 22 25 24 15 0
14 31 29 27 21 18 25 16 0
14 31 29 27 24 18 22 16 0
14 31 29 28 22 18 24 15 0
14 31 29 28 25 18 21 15 0
15 24 18 19 28 30 31 17 0
15 24 18 19 29 31 30 16 0
15 24 18 20 30 28 29 17 0
15 24 18 20 31 29 28 16 0
15 24 25 28 19 20 31 17 0
15 24 25 30 20 19 29 17 0
15 24 26 29 19 20 30 16 0
15 24 26 31 20 19 28 16 0
15 27 19 18 25 30 31 17 0
15 27 19 18 26 31 30 16 0
15 27 19 20 30 25 26 17 0
15 27 19 20 31 26 25 16 0
15 27 28 25 18 20 31 17 0
15 27 28 30 20 18 26 17 0
15 27 29 26 18 20 30 16 0
15 27 29 31 20 18 25 16 0
16 25 24 27 19 20 31 17 0
16 28 27 24 18 20 31 17 0
16 30 20 18 24 27 29 17 0
16 30 20 19 27 24 26 17 0
