p cnf 31 4567
-1 -6 -7 -2 0
-1 -6 -8 -3 0
-1 -6 -10 -4 0
-1 -6 -11 -5 0
-1 -12 -13 -2 0
-1 -12 -14 -3 0
-1 -12 -16 -4 0
-1 -12 -17 -5 0
-1 -18 -19 -2 0
-1 -18 -20 -3 0
-1 -18 -22 -4 0
-1 -18 -23 -5 0
-1 -24 -26 -2 0
-1 -24 -28 -3 0
-1 -25 -27 -2 0
-1 -25 -29 -3 0
-2 -7 -8 -3 0
-2 -7 -10 -4 0
-2 -7 -11 -5 0
-2 -13 -14 -3 0
-2 -13 -16 -4 0
-2 -13 -17 -5 0
-2 -19 -20 -3 0
-2 -19 -22 -4 0
-2 -19 -23 -5 0
-2 -26 -28 -3 0
-2 -27 -29 -3 0
-3 -8 -10 -4 0
-3 -8 -11 -5 0
-3 -14 -16 -4 0
-3 -14 -17 -5 0
-3 -20 -22 -4 0
-3 -20 -23 -5 0
-4 -10 -11 -5 0
-4 -16 -17 -5 0
-4 -22 -23 -5 0
-4 -24 -25 -5 0
-4 -26 -27 -5 0
-4 -28 -29 -5 0
-4 -30 -31 -5 0
-6 -12 -13 -7 0
-6 -12 -14 -8 0
-6 -12 -15 -9 0
-6 -12 -16 -10 0
-6 -12 -17 -11 0
-6 -18 -19 -7 0
-6 -18 -20 -8 0
-6 -18 -21 -9 0
-6 -18 -22 -10 0
-6 -18 -23 -11 0
-6 -24 -26 -7 0
-6 -24 -28 -8 0
-6 -24 -30 -9 0
-6 -25 -27 -7 0
-6 -25 -29 -8 0
-6 -25 -31 -9 0
-7 -13 -14 -8 0
-7 -13 -15 -9 0
-7 -13 -16 -10 0
-7 -13 -17 -11 0
-7 -19 -20 -8 0
-7 -19 -21 -9 0
-7 -19 -22 -10 0
-7 -19 -23 -11 0
-7 -26 -28 -8 0
-7 -26 -30 -9 0
-7 -27 -29 -8 0
-7 -27 -31 -9 0
-8 -14 -15 -9 0
-8 -14 -16 -10 0
-8 -14 -17 -11 0
-8 -20 -21 -9 0
-8 -20 -22 -10 0
-8 -20 -23 -11 0
-8 -28 -30 -9 0
-8 -29 -31 -9 0
-9 -15 -16 -10 0
-9 -15 -17 -11 0
-9 -21 -22 -10 0
-9 -21 -23 -11 0
-10 -16 -17 -11 0
-10 -22 -23 -11 0
-10 -24 -25 -11 0
-10 -26 -27 -11 0
-10 -28 -29 -11 0
-10 -30 -31 -11 0
-12 -18 -19 -13 0
-12 -18 -20 -14 0
-12 -18 -21 -15 0
-12 -18 -22 -16 0
-12 -18 -23 -17 0
-12 -24 -26 -13 0
-12 -24 -28 -14 0
-12 -24 -30 -15 0
-12 -25 -27 -13 0
-12 -25 -29 -14 0
-12 -25 -31 -15 0
-13 -19 -20 -14 0
-13 -19 -21 -15 0
-13 -19 -22 -16 0
-13 -19 -23 -17 0
-13 -26 -28 -14 0
-13 -26 -30 -15 0
-13 -27 -29 -14 0
-13 -27 -31 -15 0
-14 -20 -21 -15 0
-14 -20 -22 -16 0
-14 -20 -23 -17 0
-14 -28 -30 -15 0
-14 -29 -31 -15 0
-15 -21 -22 -16 0
-15 -21 -23 -17 0
-16 -22 -23 -17 0
-16 -24 -25 -17 0
-16 -26 -27 -17 0
-16 -28 -29 -17 0
-16 -30 -31 -17 0
-18 -24 -26 -19 0
-18 -24 -28 -20 0
-18 -24 -30 -21 0
-18 -25 -27 -19 0
-18 -25 -29 -20 0
-18 -25 -31 -21 0
-19 -26 -28 -20 0
-19 -26 -30 -21 0
-19 -27 -29 -20 0
-19 -27 -31 -21 0
-20 -28 -30 -21 0
-20 -29 -31 -21 0
-22 -24 -25 -23 0
-22 -26 -27 -23 0
-22 -28 -29 -23 0
-22 -30 -31 -23 0
-24 -26 -27 -25 0
-24 -28 -29 -25 0
-24 -30 -31 -25 0
-26 -28 -29 -27 0
-26 -30 -31 -27 0
-28 -30 -31 -29 0
1 6 7 13 14 20 22 4 0
1 6 7 13 14 20 23 5 0
1 6 7 13 15 21 20 3 0
1 6 7 13 15 21 22 4 0
1 6 7 13 15 21 23 5 0
1 6 7 13 15 30 28 3 0
1 6 7 13 15 31 29 3 0
1 6 7 13 16 22 20 3 0
1 6 7 13 16 22 23 5 0
1 6 7 13 16 28 29 5 0
1 6 7 13 16 30 31 5 0
1 6 7 13 17 23 20 3 0
1 6 7 13 17 23 22 4 0
1 6 7 13 17 29 28 4 0
1 6 7 13 17 31 30 4 0
1 6 7 19 20 14 16 4 0
1 6 7 19 20 14 17 5 0
1 6 7 19 21 15 14 3 0
1 6 7 19 21 15 16 4 0
1 6 7 19 21 15 17 5 0
1 6 7 19 21 30 28 3 0
1 6 7 19 21 31 29 3 0
1 6 7 19 22 16 14 3 0
1 6 7 19 22 16 17 5 0
1 6 7 19 22 28 29 5 0
1 6 7 19 22 30 31 5 0
1 6 7 19 23 17 14 3 0
1 6 7 19 23 17 16 4 0
1 6 7 19 23 29 28 4 0
1 6 7 19 23 31 30 4 0
1 6 7 26 16 14 29 5 0
1 6 7 26 16 15 31 5 0
1 6 7 26 16 17 29 3 0
1 6 7 26 22 20 29 5 0
1 6 7 26 22 21 31 5 0
1 6 7 26 22 23 29 3 0
1 6 7 26 28 14 17 5 0
1 6 7 26 28 20 23 5 0
1 6 7 26 30 15 14 3 0
1 6 7 26 30 15 17 5 0
1 6 7 26 30 21 20 3 0
1 6 7 26 30 21 23 5 0
1 6 7 26 30 31 29 3 0
1 6 7 27 17 14 28 4 0
1 6 7 27 17 15 30 4 0
1 6 7 27 17 16 28 3 0
1 6 7 27 23 20 28 4 0
1 6 7 27 23 21 30 4 0
1 6 7 27 23 22 28 3 0
1 6 7 27 29 14 16 4 0
1 6 7 27 29 20 22 4 0
1 6 7 27 31 15 14 3 0
1 6 7 27 31 15 16 4 0
1 6 7 27 31 21 20 3 0
1 6 7 27 31 21 22 4 0
1 6 7 27 31 30 28 3 0
1 6 8 14 13 19 22 4 0
1 6 8 14 13 19 23 5 0
1 6 8 14 15 21 19 2 0
1 6 8 14 15 21 22 4 0
1 6 8 14 15 21 23 5 0
1 6 8 14 15 30 26 2 0
1 6 8 14 15 31 27 2 0
1 6 8 14 16 22 19 2 0
1 6 8 14 16 22 23 5 0
1 6 8 14 16 26 27 5 0
1 6 8 14 16 30 31 5 0
1 6 8 14 17 23 19 2 0
1 6 8 14 17 23 22 4 0
1 6 8 14 17 27 26 4 0
1 6 8 14 17 31 30 4 0
1 6 8 20 19 13 16 4 0
1 6 8 20 19 13 17 5 0
1 6 8 20 21 15 13 2 0
1 6 8 20 21 15 16 4 0
1 6 8 20 21 15 17 5 0
1 6 8 20 21 30 26 2 0
1 6 8 20 21 31 27 2 0
1 6 8 20 22 16 13 2 0
1 6 8 20 22 16 17 5 0
1 6 8 20 22 26 27 5 0
1 6 8 20 22 30 31 5 0
1 6 8 20 23 17 13 2 0
1 6 8 20 23 17 16 4 0
1 6 8 20 23 27 26 4 0
1 6 8 20 23 31 30 4 0
1 6 8 28 16 13 27 5 0
1 6 8 28 16 15 31 5 0
1 6 8 28 16 17 27 2 0
1 6 8 28 22 19 27 5 0
1 6 8 28 22 21 31 5 0
1 6 8 28 22 23 27 2 0
1 6 8 28 26 13 17 5 0
1 6 8 28 26 19 23 5 0
1 6 8 28 30 15 13 2 0
1 6 8 28 30 15 17 5 0
1 6 8 28 30 21 19 2 0
1 6 8 28 30 21 23 5 0
1 6 8 28 30 31 27 2 0
1 6 8 29 17 13 26 4 0
1 6 8 29 17 15 30 4 0
1 6 8 29 17 16 26 2 0
1 6 8 29 23 19 26 4 0
1 6 8 29 23 21 30 4 0
1 6 8 29 23 22 26 2 0
1 6 8 29 27 13 16 4 0
1 6 8 29 27 19 22 4 0
1 6 8 29 31 15 13 2 0
1 6 8 29 31 15 16 4 0
1 6 8 29 31 21 19 2 0
1 6 8 29 31 21 22 4 0
1 6 8 29 31 30 26 2 0
1 6 9 15 13 19 20 3 0
1 6 9 15 13 19 22 4 0
1 6 9 15 13 19 23 5 0
1 6 9 15 13 26 28 3 0
1 6 9 15 13 27 29 3 0
1 6 9 15 14 20 19 2 0
1 6 9 15 14 20 22 4 0
1 6 9 15 14 20 23 5 0
1 6 9 15 14 28 26 2 0
1 6 9 15 14 29 27 2 0
1 6 9 15 16 22 19 2 0
1 6 9 15 16 22 20 3 0
1 6 9 15 16 22 23 5 0
1 6 9 15 16 26 27 5 0
1 6 9 15 16 28 29 5 0
1 6 9 15 17 23 19 2 0
1 6 9 15 17 23 20 3 0
1 6 9 15 17 23 22 4 0
1 6 9 15 17 27 26 4 0
1 6 9 15 17 29 28 4 0
1 6 9 21 19 13 14 3 0
1 6 9 21 19 13 16 4 0
1 6 9 21 19 13 17 5 0
1 6 9 21 19 26 28 3 0
1 6 9 21 19 27 29 3 0
1 6 9 21 20 14 13 2 0
1 6 9 21 20 14 16 4 0
1 6 9 21 20 14 17 5 0
1 6 9 21 20 28 26 2 0
1 6 9 21 20 29 27 2 0
1 6 9 21 22 16 13 2 0
1 6 9 21 22 16 14 3 0
1 6 9 21 22 16 17 5 0
1 6 9 21 22 26 27 5 0
1 6 9 21 22 28 29 5 0
1 6 9 21 23 17 13 2 0
1 6 9 21 23 17 14 3 0
1 6 9 21 23 17 16 4 0
1 6 9 21 23 27 26 4 0
1 6 9 21 23 29 28 4 0
1 6 9 30 16 13 27 5 0
1 6 9 30 16 14 29 5 0
1 6 9 30 16 17 27 2 0
1 6 9 30 16 17 29 3 0
1 6 9 30 22 19 27 5 0
1 6 9 30 22 20 29 5 0
1 6 9 30 22 23 27 2 0
1 6 9 30 22 23 29 3 0
1 6 9 30 26 13 14 3 0
1 6 9 30 26 13 17 5 0
1 6 9 30 26 19 20 3 0
1 6 9 30 26 19 23 5 0
1 6 9 30 26 27 29 3 0
1 6 9 30 28 14 13 2 0
1 6 9 30 28 14 17 5 0
1 6 9 30 28 20 19 2 0
1 6 9 30 28 20 23 5 0
1 6 9 30 28 29 27 2 0
1 6 9 31 17 13 26 4 0
1 6 9 31 17 14 28 4 0
1 6 9 31 17 16 26 2 0
1 6 9 31 17 16 28 3 0
1 6 9 31 23 19 26 4 0
1 6 9 31 23 20 28 4 0
1 6 9 31 23 22 26 2 0
1 6 9 31 23 22 28 3 0
1 6 9 31 27 13 14 3 0
1 6 9 31 27 13 16 4 0
1 6 9 31 27 19 20 3 0
1 6 9 31 27 19 22 4 0
1 6 9 31 27 26 28 3 0
1 6 9 31 29 14 13 2 0
1 6 9 31 29 14 16 4 0
1 6 9 31 29 20 19 2 0
1 6 9 31 29 20 22 4 0
1 6 9 31 29 28 26 2 0
1 6 10 16 13 19 20 3 0
1 6 10 16 13 19 23 5 0
1 6 10 16 13 27 29 3 0
1 6 10 16 14 20 19 2 0
1 6 10 16 14 20 23 5 0
1 6 10 16 14 29 27 2 0
1 6 10 16 15 21 19 2 0
1 6 10 16 15 21 20 3 0
1 6 10 16 15 21 23 5 0
1 6 10 16 15 31 27 2 0
1 6 10 16 15 31 29 3 0
1 6 10 16 17 23 19 2 0
1 6 10 16 17 23 20 3 0
1 6 10 22 19 13 14 3 0
1 6 10 22 19 13 17 5 0
1 6 10 22 19 27 29 3 0
1 6 10 22 20 14 13 2 0
1 6 10 22 20 14 17 5 0
1 6 10 22 20 29 27 2 0
1 6 10 22 21 15 13 2 0
1 6 10 22 21 15 14 3 0
1 6 10 22 21 15 17 5 0
1 6 10 22 21 31 27 2 0
1 6 10 22 21 31 29 3 0
1 6 10 22 23 17 13 2 0
1 6 10 22 23 17 14 3 0
1 6 10 26 13 14 29 5 0
1 6 10 26 13 15 31 5 0
1 6 10 26 13 17 29 3 0
1 6 10 26 19 20 29 5 0
1 6 10 26 19 21 31 5 0
1 6 10 26 19 23 29 3 0
1 6 10 26 27 17 14 3 0
1 6 10 26 27 23 20 3 0
1 6 10 28 14 13 27 5 0
1 6 10 28 14 15 31 5 0
1 6 10 28 14 17 27 2 0
1 6 10 28 20 19 27 5 0
1 6 10 28 20 21 31 5 0
1 6 10 28 20 23 27 2 0
1 6 10 28 29 17 13 2 0
1 6 10 28 29 23 19 2 0
1 6 10 30 15 13 27 5 0
1 6 10 30 15 14 29 5 0
1 6 10 30 15 17 27 2 0
1 6 10 30 15 17 29 3 0
1 6 10 30 21 19 27 5 0
1 6 10 30 21 20 29 5 0
1 6 10 30 21 23 27 2 0
1 6 10 30 21 23 29 3 0
1 6 10 30 31 17 13 2 0
1 6 10 30 31 17 14 3 0
1 6 10 30 31 23 19 2 0
1 6 10 30 31 23 20 3 0
1 6 11 17 13 19 20 3 0
1 6 11 17 13 19 22 4 0
1 6 11 17 13 26 28 3 0
1 6 11 17 14 20 19 2 0
1 6 11 17 14 20 22 4 0
1 6 11 17 14 28 26 2 0
1 6 11 17 15 21 19 2 0
1 6 11 17 15 21 20 3 0
1 6 11 17 15 21 22 4 0
1 6 11 17 15 30 26 2 0
1 6 11 17 15 30 28 3 0
1 6 11 17 16 22 19 2 0
1 6 11 17 16 22 20 3 0
1 6 11 23 19 13 14 3 0
1 6 11 23 19 13 16 4 0
1 6 11 23 19 26 28 3 0
1 6 11 23 20 14 13 2 0
1 6 11 23 20 14 16 4 0
1 6 11 23 20 28 26 2 0
1 6 11 23 21 15 13 2 0
1 6 11 23 21 15 14 3 0
1 6 11 23 21 15 16 4 0
1 6 11 23 21 30 26 2 0
1 6 11 23 21 30 28 3 0
1 6 11 23 22 16 13 2 0
1 6 11 23 22 16 14 3 0
1 6 11 27 13 14 28 4 0
1 6 11 27 13 15 30 4 0
1 6 11 27 13 16 28 3 0
1 6 11 27 19 20 28 4 0
1 6 11 27 19 21 30 4 0
1 6 11 27 19 22 28 3 0
1 6 11 27 26 16 14 3 0
1 6 11 27 26 22 20 3 0
1 6 11 29 14 13 26 4 0
1 6 11 29 14 15 30 4 0
1 6 11 29 14 16 26 2 0
1 6 11 29 20 19 26 4 0
1 6 11 29 20 21 30 4 0
1 6 11 29 20 22 26 2 0
1 6 11 29 28 16 13 2 0
1 6 11 29 28 22 19 2 0
1 6 11 31 15 13 26 4 0
1 6 11 31 15 14 28 4 0
1 6 11 31 15 16 26 2 0
1 6 11 31 15 16 28 3 0
1 6 11 31 21 19 26 4 0
1 6 11 31 21 20 28 4 0
1 6 11 31 21 22 26 2 0
1 6 11 31 21 22 28 3 0
1 6 11 31 30 16 13 2 0
1 6 11 31 30 16 14 3 0
1 6 11 31 30 22 19 2 0
1 6 11 31 30 22 20 3 0
1 12 13 7 8 20 22 4 0
1 12 13 7 8 20 23 5 0
1 12 13 7 9 21 20 3 0
1 12 13 7 9 21 22 4 0
1 12 13 7 9 21 23 5 0
1 12 13 7 9 30 28 3 0
1 12 13 7 9 31 29 3 0
1 12 13 7 10 22 20 3 0
1 12 13 7 10 22 23 5 0
1 12 13 7 10 28 29 5 0
1 12 13 7 10 30 31 5 0
1 12 13 7 11 23 20 3 0
1 12 13 7 11 23 22 4 0
1 12 13 7 11 29 28 4 0
1 12 13 7 11 31 30 4 0
1 12 13 19 20 8 10 4 0
1 12 13 19 20 8 11 5 0
1 12 13 19 21 9 8 3 0
1 12 13 19 21 9 10 4 0
1 12 13 19 21 9 11 5 0
1 12 13 19 21 30 28 3 0
1 12 13 19 21 31 29 3 0
1 12 13 19 22 10 8 3 0
1 12 13 19 22 10 11 5 0
1 12 13 19 22 28 29 5 0
1 12 13 19 22 30 31 5 0
1 12 13 19 23 11 8 3 0
1 12 13 19 23 11 10 4 0
1 12 13 19 23 29 28 4 0
1 12 13 19 23 31 30 4 0
1 12 13 26 10 8 29 5 0
1 12 13 26 10 9 31 5 0
1 12 13 26 10 11 29 3 0
1 12 13 26 22 20 29 5 0
1 12 13 26 22 21 31 5 0
1 12 13 26 22 23 29 3 0
1 12 13 26 28 8 11 5 0
1 12 13 26 28 20 23 5 0
1 12 13 26 30 9 8 3 0
1 12 13 26 30 9 11 5 0
1 12 13 26 30 21 20 3 0
1 12 13 26 30 21 23 5 0
1 12 13 26 30 31 29 3 0
1 12 13 27 11 8 28 4 0
1 12 13 27 11 9 30 4 0
1 12 13 27 11 10 28 3 0
1 12 13 27 23 20 28 4 0
1 12 13 27 23 21 30 4 0
1 12 13 27 23 22 28 3 0
1 12 13 27 29 8 10 4 0
1 12 13 27 29 20 22 4 0
1 12 13 27 31 9 8 3 0
1 12 13 27 31 9 10 4 0
1 12 13 27 31 21 20 3 0
1 12 13 27 31 21 22 4 0
1 12 13 27 31 30 28 3 0
1 12 14 8 7 19 22 4 0
1 12 14 8 7 19 23 5 0
1 12 14 8 9 21 19 2 0
1 12 14 8 9 21 22 4 0
1 12 14 8 9 21 23 5 0
1 12 14 8 9 30 26 2 0
1 12 14 8 9 31 27 2 0
1 12 14 8 10 22 19 2 0
1 12 14 8 10 22 23 5 0
1 12 14 8 10 26 27 5 0
1 12 14 8 10 30 31 5 0
1 12 14 8 11 23 19 2 0
1 12 14 8 11 23 22 4 0
1 12 14 8 11 27 26 4 0
1 12 14 8 11 31 30 4 0
1 12 14 20 19 7 10 4 0
1 12 14 20 19 7 11 5 0
1 12 14 20 21 9 7 2 0
1 12 14 20 21 9 10 4 0
1 12 14 20 21 9 11 5 0
1 12 14 20 21 30 26 2 0
1 12 14 20 21 31 27 2 0
1 12 14 20 22 10 7 2 0
1 12 14 20 22 10 11 5 0
1 12 14 20 22 26 27 5 0
1 12 14 20 22 30 31 5 0
1 12 14 20 23 11 7 2 0
1 12 14 20 23 11 10 4 0
1 12 14 20 23 27 26 4 0
1 12 14 20 23 31 30 4 0
1 12 14 28 10 7 27 5 0
1 12 14 28 10 9 31 5 0
1 12 14 28 10 11 27 2 0
1 12 14 28 22 19 27 5 0
1 12 14 28 22 21 31 5 0
1 12 14 28 22 23 27 2 0
1 12 14 28 26 7 11 5 0
1 12 14 28 26 19 23 5 0
1 12 14 28 30 9 7 2 0
1 12 14 28 30 9 11 5 0
1 12 14 28 30 21 19 2 0
1 12 14 28 30 21 23 5 0
1 12 14 28 30 31 27 2 0
1 12 14 29 11 7 26 4 0
1 12 14 29 11 9 30 4 0
1 12 14 29 11 10 26 2 0
1 12 14 29 23 19 26 4 0
1 12 14 29 23 21 30 4 0
1 12 14 29 23 22 26 2 0
1 12 14 29 27 7 10 4 0
1 12 14 29 27 19 22 4 0
1 12 14 29 31 9 7 2 0
1 12 14 29 31 9 10 4 0
1 12 14 29 31 21 19 2 0
1 12 14 29 31 21 22 4 0
1 12 14 29 31 30 26 2 0
1 12 15 9 7 19 20 3 0
1 12 15 9 7 19 22 4 0
1 12 15 9 7 19 23 5 0
1 12 15 9 7 26 28 3 0
1 12 15 9 7 27 29 3 0
1 12 15 9 8 20 19 2 0
1 12 15 9 8 20 22 4 0
1 12 15 9 8 20 23 5 0
1 12 15 9 8 28 26 2 0
1 12 15 9 8 29 27 2 0
1 12 15 9 10 22 19 2 0
1 12 15 9 10 22 20 3 0
1 12 15 9 10 22 23 5 0
1 12 15 9 10 26 27 5 0
1 12 15 9 10 28 29 5 0
1 12 15 9 11 23 19 2 0
1 12 15 9 11 23 20 3 0
1 12 15 9 11 23 22 4 0
1 12 15 9 11 27 26 4 0
1 12 15 9 11 29 28 4 0
1 12 15 21 19 7 8 3 0
1 12 15 21 19 7 10 4 0
1 12 15 21 19 7 11 5 0
1 12 15 21 19 26 28 3 0
1 12 15 21 19 27 29 3 0
1 12 15 21 20 8 7 2 0
1 12 15 21 20 8 10 4 0
1 12 15 21 20 8 11 5 0
1 12 15 21 20 28 26 2 0
1 12 15 21 20 29 27 2 0
1 12 15 21 22 10 7 2 0
1 12 15 21 22 10 8 3 0
1 12 15 21 22 10 11 5 0
1 12 15 21 22 26 27 5 0
1 12 15 21 22 28 29 5 0
1 12 15 21 23 11 7 2 0
1 12 15 21 23 11 8 3 0
1 12 15 21 23 11 10 4 0
1 12 15 21 23 27 26 4 0
1 12 15 21 23 29 28 4 0
1 12 15 30 10 7 27 5 0
1 12 15 30 10 8 29 5 0
1 12 15 30 10 11 27 2 0
1 12 15 30 10 11 29 3 0
1 12 15 30 22 19 27 5 0
1 12 15 30 22 20 29 5 0
1 12 15 30 22 23 27 2 0
1 12 15 30 22 23 29 3 0
1 12 15 30 26 7 8 3 0
1 12 15 30 26 7 11 5 0
1 12 15 30 26 19 20 3 0
1 12 15 30 26 19 23 5 0
1 12 15 30 26 27 29 3 0
1 12 15 30 28 8 7 2 0
1 12 15 30 28 8 11 5 0
1 12 15 30 28 20 19 2 0
1 12 15 30 28 20 23 5 0
1 12 15 30 28 29 27 2 0
1 12 15 31 11 7 26 4 0
1 12 15 31 11 8 28 4 0
1 12 15 31 11 10 26 2 0
1 12 15 31 11 10 28 3 0
1 12 15 31 23 19 26 4 0
1 12 15 31 23 20 28 4 0
1 12 15 31 23 22 26 2 0
1 12 15 31 23 22 28 3 0
1 12 15 31 27 7 8 3 0
1 12 15 31 27 7 10 4 0
1 12 15 31 27 19 20 3 0
1 12 15 31 27 19 22 4 0
1 12 15 31 27 26 28 3 0
1 12 15 31 29 8 7 2 0
1 12 15 31 29 8 10 4 0
1 12 15 31 29 20 19 2 0
1 12 15 31 29 20 22 4 0
1 12 15 31 29 28 26 2 0
1 12 16 10 7 19 20 3 0
1 12 16 10 7 19 23 5 0
1 12 16 10 7 27 29 3 0
1 12 16 10 8 20 19 2 0
1 12 16 10 8 20 23 5 0
1 12 16 10 8 29 27 2 0
1 12 16 10 9 21 19 2 0
1 12 16 10 9 21 20 3 0
1 12 16 10 9 21 23 5 0
1 12 16 10 9 31 27 2 0
1 12 16 10 9 31 29 3 0
1 12 16 10 11 23 19 2 0
1 12 16 10 11 23 20 3 0
1 12 16 22 19 7 8 3 0
1 12 16 22 19 7 11 5 0
1 12 16 22 19 27 29 3 0
1 12 16 22 20 8 7 2 0
1 12 16 22 20 8 11 5 0
1 12 16 22 20 29 27 2 0
1 12 16 22 21 9 7 2 0
1 12 16 22 21 9 8 3 0
1 12 16 22 21 9 11 5 0
1 12 16 22 21 31 27 2 0
1 12 16 22 21 31 29 3 0
1 12 16 22 23 11 7 2 0
1 12 16 22 23 11 8 3 0
1 12 16 26 7 8 29 5 0
1 12 16 26 7 9 31 5 0
1 12 16 26 7 11 29 3 0
1 12 16 26 19 20 29 5 0
1 12 16 26 19 21 31 5 0
1 12 16 26 19 23 29 3 0
1 12 16 26 27 11 8 3 0
1 12 16 26 27 23 20 3 0
1 12 16 28 8 7 27 5 0
1 12 16 28 8 9 31 5 0
1 12 16 28 8 11 27 2 0
1 12 16 28 20 19 27 5 0
1 12 16 28 20 21 31 5 0
1 12 16 28 20 23 27 2 0
1 12 16 28 29 11 7 2 0
1 12 16 28 29 23 19 2 0
1 12 16 30 9 7 27 5 0
1 12 16 30 9 8 29 5 0
1 12 16 30 9 11 27 2 0
1 12 16 30 9 11 29 3 0
1 12 16 30 21 19 27 5 0
1 12 16 30 21 20 29 5 0
1 12 16 30 21 23 27 2 0
1 12 16 30 21 23 29 3 0
1 12 16 30 31 11 7 2 0
1 12 16 30 31 11 8 3 0
1 12 16 30 31 23 19 2 0
1 12 16 30 31 23 20 3 0
1 12 17 11 7 19 20 3 0
1 12 17 11 7 19 22 4 0
1 12 17 11 7 26 28 3 0
1 12 17 11 8 20 19 2 0
1 12 17 11 8 20 22 4 0
1 12 17 11 8 28 26 2 0
1 12 17 11 9 21 19 2 0
1 12 17 11 9 21 20 3 0
1 12 17 11 9 21 22 4 0
1 12 17 11 9 30 26 2 0
1 12 17 11 9 30 28 3 0
1 12 17 11 10 22 19 2 0
1 12 17 11 10 22 20 3 0
1 12 17 23 19 7 8 3 0
1 12 17 23 19 7 10 4 0
1 12 17 23 19 26 28 3 0
1 12 17 23 20 8 7 2 0
1 12 17 23 20 8 10 4 0
1 12 17 23 20 28 26 2 0
1 12 17 23 21 9 7 2 0
1 12 17 23 21 9 8 3 0
1 12 17 23 21 9 10 4 0
1 12 17 23 21 30 26 2 0
1 12 17 23 21 30 28 3 0
1 12 17 23 22 10 7 2 0
1 12 17 23 22 10 8 3 0
1 12 17 27 7 8 28 4 0
1 12 17 27 7 9 30 4 0
1 12 17 27 7 10 28 3 0
1 12 17 27 19 20 28 4 0
1 12 17 27 19 21 30 4 0
1 12 17 27 19 22 28 3 0
1 12 17 27 26 10 8 3 0
1 12 17 27 26 22 20 3 0
1 12 17 29 8 7 26 4 0
1 12 17 29 8 9 30 4 0
1 12 17 29 8 10 26 2 0
1 12 17 29 20 19 26 4 0
1 12 17 29 20 21 30 4 0
1 12 17 29 20 22 26 2 0
1 12 17 29 28 10 7 2 0
1 12 17 29 28 22 19 2 0
1 12 17 31 9 7 26 4 0
1 12 17 31 9 8 28 4 0
1 12 17 31 9 10 26 2 0
1 12 17 31 9 10 28 3 0
1 12 17 31 21 19 26 4 0
1 12 17 31 21 20 28 4 0
1 12 17 31 21 22 26 2 0
1 12 17 31 21 22 28 3 0
1 12 17 31 30 10 7 2 0
1 12 17 31 30 10 8 3 0
1 12 17 31 30 22 19 2 0
1 12 17 31 30 22 20 3 0
1 18 19 7 8 14 16 4 0
1 18 19 7 8 14 17 5 0
1 18 19 7 9 15 14 3 0
1 18 19 7 9 15 16 4 0
1 18 19 7 9 15 17 5 0
1 18 19 7 9 30 28 3 0
1 18 19 7 9 31 29 3 0
1 18 19 7 10 16 14 3 0
1 18 19 7 10 16 17 5 0
1 18 19 7 10 28 29 5 0
1 18 19 7 10 30 31 5 0
1 18 19 7 11 17 14 3 0
1 18 19 7 11 17 16 4 0
1 18 19 7 11 29 28 4 0
1 18 19 7 11 31 30 4 0
1 18 19 13 14 8 10 4 0
1 18 19 13 14 8 11 5 0
1 18 19 13 15 9 8 3 0
1 18 19 13 15 9 10 4 0
1 18 19 13 15 9 11 5 0
1 18 19 13 15 30 28 3 0
1 18 19 13 15 31 29 3 0
1 18 19 13 16 10 8 3 0
1 18 19 13 16 10 11 5 0
1 18 19 13 16 28 29 5 0
1 18 19 13 16 30 31 5 0
1 18 19 13 17 11 8 3 0
1 18 19 13 17 11 10 4 0
1 18 19 13 17 29 28 4 0
1 18 19 13 17 31 30 4 0
1 18 19 26 10 8 29 5 0
1 18 19 26 10 9 31 5 0
1 18 19 26 10 11 29 3 0
1 18 19 26 16 14 29 5 0
1 18 19 26 16 15 31 5 0
1 18 19 26 16 17 29 3 0
1 18 19 26 28 8 11 5 0
1 18 19 26 28 14 17 5 0
1 18 19 26 30 9 8 3 0
1 18 19 26 30 9 11 5 0
1 18 19 26 30 15 14 3 0
1 18 19 26 30 15 17 5 0
1 18 19 26 30 31 29 3 0
1 18 19 27 11 8 28 4 0
1 18 19 27 11 9 30 4 0
1 18 19 27 11 10 28 3 0
1 18 19 27 17 14 28 4 0
1 18 19 27 17 15 30 4 0
1 18 19 27 17 16 28 3 0
1 18 19 27 29 8 10 4 0
1 18 19 27 29 14 16 4 0
1 18 19 27 31 9 8 3 0
1 18 19 27 31 9 10 4 0
1 18 19 27 31 15 14 3 0
1 18 19 27 31 15 16 4 0
1 18 19 27 31 30 28 3 0
1 18 20 8 7 13 16 4 0
1 18 20 8 7 13 17 5 0
1 18 20 8 9 15 13 2 0
1 18 20 8 9 15 16 4 0
1 18 20 8 9 15 17 5 0
1 18 20 8 9 30 26 2 0
1 18 20 8 9 31 27 2 0
1 18 20 8 10 16 13 2 0
1 18 20 8 10 16 17 5 0
1 18 20 8 10 26 27 5 0
1 18 20 8 10 30 31 5 0
1 18 20 8 11 17 13 2 0
1 18 20 8 11 17 16 4 0
1 18 20 8 11 27 26 4 0
1 18 20 8 11 31 30 4 0
1 18 20 14 13 7 10 4 0
1 18 20 14 13 7 11 5 0
1 18 20 14 15 9 7 2 0
1 18 20 14 15 9 10 4 0
1 18 20 14 15 9 11 5 0
1 18 20 14 15 30 26 2 0
1 18 20 14 15 31 27 2 0
1 18 20 14 16 10 7 2 0
1 18 20 14 16 10 11 5 0
1 18 20 14 16 26 27 5 0
1 18 20 14 16 30 31 5 0
1 18 20 14 17 11 7 2 0
1 18 20 14 17 11 10 4 0
1 18 20 14 17 27 26 4 0
1 18 20 14 17 31 30 4 0
1 18 20 28 10 7 27 5 0
1 18 20 28 10 9 31 5 0
1 18 20 28 10 11 27 2 0
1 18 20 28 16 13 27 5 0
1 18 20 28 16 15 31 5 0
1 18 20 28 16 17 27 2 0
1 18 20 28 26 7 11 5 0
1 18 20 28 26 13 17 5 0
1 18 20 28 30 9 7 2 0
1 18 20 28 30 9 11 5 0
1 18 20 28 30 15 13 2 0
1 18 20 28 30 15 17 5 0
1 18 20 28 30 31 27 2 0
1 18 20 29 11 7 26 4 0
1 18 20 29 11 9 30 4 0
1 18 20 29 11 10 26 2 0
1 18 20 29 17 13 26 4 0
1 18 20 29 17 15 30 4 0
1 18 20 29 17 16 26 2 0
1 18 20 29 27 7 10 4 0
1 18 20 29 27 13 16 4 0
1 18 20 29 31 9 7 2 0
1 18 20 29 31 9 10 4 0
1 18 20 29 31 15 13 2 0
1 18 20 29 31 15 16 4 0
1 18 20 29 31 30 26 2 0
1 18 21 9 7 13 14 3 0
1 18 21 9 7 13 16 4 0
1 18 21 9 7 13 17 5 0
1 18 21 9 7 26 28 3 0
1 18 21 9 7 27 29 3 0
1 18 21 9 8 14 13 2 0
1 18 21 9 8 14 16 4 0
1 18 21 9 8 14 17 5 0
1 18 21 9 8 28 26 2 0
1 18 21 9 8 29 27 2 0
1 18 21 9 10 16 13 2 0
1 18 21 9 10 16 14 3 0
1 18 21 9 10 16 17 5 0
1 18 21 9 10 26 27 5 0
1 18 21 9 10 28 29 5 0
1 18 21 9 11 17 13 2 0
1 18 21 9 11 17 14 3 0
1 18 21 9 11 17 16 4 0
1 18 21 9 11 27 26 4 0
1 18 21 9 11 29 28 4 0
1 18 21 15 13 7 8 3 0
1 18 21 15 13 7 10 4 0
1 18 21 15 13 7 11 5 0
1 18 21 15 13 26 28 3 0
1 18 21 15 13 27 29 3 0
1 18 21 15 14 8 7 2 0
1 18 21 15 14 8 10 4 0
1 18 21 15 14 8 11 5 0
1 18 21 15 14 28 26 2 0
1 18 21 15 14 29 27 2 0
1 18 21 15 16 10 7 2 0
1 18 21 15 16 10 8 3 0
1 18 21 15 16 10 11 5 0
1 18 21 15 16 26 27 5 0
1 18 21 15 16 28 29 5 0
1 18 21 15 17 11 7 2 0
1 18 21 15 17 11 8 3 0
1 18 21 15 17 11 10 4 0
1 18 21 15 17 27 26 4 0
1 18 21 15 17 29 28 4 0
1 18 21 30 10 7 27 5 0
1 18 21 30 10 8 29 5 0
1 18 21 30 10 11 27 2 0
1 18 21 30 10 11 29 3 0
1 18 21 30 16 13 27 5 0
1 18 21 30 16 14 29 5 0
1 18 21 30 16 17 27 2 0
1 18 21 30 16 17 29 3 0
1 18 21 30 26 7 8 3 0
1 18 21 30 26 7 11 5 0
1 18 21 30 26 13 14 3 0
1 18 21 30 26 13 17 5 0
1 18 21 30 26 27 29 3 0
1 18 21 30 28 8 7 2 0
1 18 21 30 28 8 11 5 0
1 18 21 30 28 14 13 2 0
1 18 21 30 28 14 17 5 0
1 18 21 30 28 29 27 2 0
1 18 21 31 11 7 26 4 0
1 18 21 31 11 8 28 4 0
1 18 21 31 11 10 26 2 0
1 18 21 31 11 10 28 3 0
1 18 21 31 17 13 26 4 0
1 18 21 31 17 14 28 4 0
1 18 21 31 17 16 26 2 0
1 18 21 31 17 16 28 3 0
1 18 21 31 27 7 8 3 0
1 18 21 31 27 7 10 4 0
1 18 21 31 27 13 14 3 0
1 18 21 31 27 13 16 4 0
1 18 21 31 27 26 28 3 0
1 18 21 31 29 8 7 2 0
1 18 21 31 29 8 10 4 0
1 18 21 31 29 14 13 2 0
1 18 21 31 29 14 16 4 0
1 18 21 31 29 28 26 2 0
1 18 22 10 7 13 14 3 0
1 18 22 10 7 13 17 5 0
1 18 22 10 7 27 29 3 0
1 18 22 10 8 14 13 2 0
1 18 22 10 8 14 17 5 0
1 18 22 10 8 29 27 2 0
1 18 22 10 9 15 13 2 0
1 18 22 10 9 15 14 3 0
1 18 22 10 9 15 17 5 0
1 18 22 10 9 31 27 2 0
1 18 22 10 9 31 29 3 0
1 18 22 10 11 17 13 2 0
1 18 22 10 11 17 14 3 0
1 18 22 16 13 7 8 3 0
1 18 22 16 13 7 11 5 0
1 18 22 16 13 27 29 3 0
1 18 22 16 14 8 7 2 0
1 18 22 16 14 8 11 5 0
1 18 22 16 14 29 27 2 0
1 18 22 16 15 9 7 2 0
1 18 22 16 15 9 8 3 0
1 18 22 16 15 9 11 5 0
1 18 22 16 15 31 27 2 0
1 18 22 16 15 31 29 3 0
1 18 22 16 17 11 7 2 0
1 18 22 16 17 11 8 3 0
1 18 22 26 7 8 29 5 0
1 18 22 26 7 9 31 5 0
1 18 22 26 7 11 29 3 0
1 18 22 26 13 14 29 5 0
1 18 22 26 13 15 31 5 0
1 18 22 26 13 17 29 3 0
1 18 22 26 27 11 8 3 0
1 18 22 26 27 17 14 3 0
1 18 22 28 8 7 27 5 0
1 18 22 28 8 9 31 5 0
1 18 22 28 8 11 27 2 0
1 18 22 28 14 13 27 5 0
1 18 22 28 14 15 31 5 0
1 18 22 28 14 17 27 2 0
1 18 22 28 29 11 7 2 0
1 18 22 28 29 17 13 2 0
1 18 22 30 9 7 27 5 0
1 18 22 30 9 8 29 5 0
1 18 22 30 9 11 27 2 0
1 18 22 30 9 11 29 3 0
1 18 22 30 15 13 27 5 0
1 18 22 30 15 14 29 5 0
1 18 22 30 15 17 27 2 0
1 18 22 30 15 17 29 3 0
1 18 22 30 31 11 7 2 0
1 18 22 30 31 11 8 3 0
1 18 22 30 31 17 13 2 0
1 18 22 30 31 17 14 3 0
1 18 23 11 7 13 14 3 0
1 18 23 11 7 13 16 4 0
1 18 23 11 7 26 28 3 0
1 18 23 11 8 14 13 2 0
1 18 23 11 8 14 16 4 0
1 18 23 11 8 28 26 2 0
1 18 23 11 9 15 13 2 0
1 18 23 11 9 15 14 3 0
1 18 23 11 9 15 16 4 0
1 18 23 11 9 30 26 2 0
1 18 23 11 9 30 28 3 0
1 18 23 11 10 16 13 2 0
1 18 23 11 10 16 14 3 0
1 18 23 17 13 7 8 3 0
1 18 23 17 13 7 10 4 0
1 18 23 17 13 26 28 3 0
1 18 23 17 14 8 7 2 0
1 18 23 17 14 8 10 4 0
1 18 23 17 14 28 26 2 0
1 18 23 17 15 9 7 2 0
1 18 23 17 15 9 8 3 0
1 18 23 17 15 9 10 4 0
1 18 23 17 15 30 26 2 0
1 18 23 17 15 30 28 3 0
1 18 23 17 16 10 7 2 0
1 18 23 17 16 10 8 3 0
1 18 23 27 7 8 28 4 0
1 18 23 27 7 9 30 4 0
1 18 23 27 7 10 28 3 0
1 18 23 27 13 14 28 4 0
1 18 23 27 13 15 30 4 0
1 18 23 27 13 16 28 3 0
1 18 23 27 26 10 8 3 0
1 18 23 27 26 16 14 3 0
1 18 23 29 8 7 26 4 0
1 18 23 29 8 9 30 4 0
1 18 23 29 8 10 26 2 0
1 18 23 29 14 13 26 4 0
1 18 23 29 14 15 30 4 0
1 18 23 29 14 16 26 2 0
1 18 23 29 28 10 7 2 0
1 18 23 29 28 16 13 2 0
1 18 23 31 9 7 26 4 0
1 18 23 31 9 8 28 4 0
1 18 23 31 9 10 26 2 0
1 18 23 31 9 10 28 3 0
1 18 23 31 15 13 26 4 0
1 18 23 31 15 14 28 4 0
1 18 23 31 15 16 26 2 0
1 18 23 31 15 16 28 3 0
1 18 23 31 30 10 7 2 0
1 18 23 31 30 10 8 3 0
1 18 23 31 30 16 13 2 0
1 18 23 31 30 16 14 3 0
1 24 10 7 13 14 29 5 0
1 24 10 7 13 15 31 5 0
1 24 10 7 13 17 29 3 0
1 24 10 7 19 20 29 5 0
1 24 10 7 19 21 31 5 0
1 24 10 7 19 23 29 3 0
1 24 10 7 27 17 14 3 0
1 24 10 7 27 23 20 3 0
1 24 10 8 14 13 27 5 0
1 24 10 8 14 15 31 5 0
1 24 10 8 14 17 27 2 0
1 24 10 8 20 19 27 5 0
1 24 10 8 20 21 31 5 0
1 24 10 8 20 23 27 2 0
1 24 10 8 29 17 13 2 0
1 24 10 8 29 23 19 2 0
1 24 10 9 15 13 27 5 0
1 24 10 9 15 14 29 5 0
1 24 10 9 15 17 27 2 0
1 24 10 9 15 17 29 3 0
1 24 10 9 21 19 27 5 0
1 24 10 9 21 20 29 5 0
1 24 10 9 21 23 27 2 0
1 24 10 9 21 23 29 3 0
1 24 10 9 31 17 13 2 0
1 24 10 9 31 17 14 3 0
1 24 10 9 31 23 19 2 0
1 24 10 9 31 23 20 3 0
1 24 10 11 27 13 14 3 0
1 24 10 11 27 19 20 3 0
1 24 10 11 29 14 13 2 0
1 24 10 11 29 20 19 2 0
1 24 10 11 31 15 13 2 0
1 24 10 11 31 15 14 3 0
1 24 10 11 31 21 19 2 0
1 24 10 11 31 21 20 3 0
1 24 16 13 7 8 29 5 0
1 24 16 13 7 9 31 5 0
1 24 16 13 7 11 29 3 0
1 24 16 13 19 20 29 5 0
1 24 16 13 19 21 31 5 0
1 24 16 13 19 23 29 3 0
1 24 16 13 27 11 8 3 0
1 24 16 13 27 23 20 3 0
1 24 16 14 8 7 27 5 0
1 24 16 14 8 9 31 5 0
1 24 16 14 8 11 27 2 0
1 24 16 14 20 19 27 5 0
1 24 16 14 20 21 31 5 0
1 24 16 14 20 23 27 2 0
1 24 16 14 29 11 7 2 0
1 24 16 14 29 23 19 2 0
1 24 16 15 9 7 27 5 0
1 24 16 15 9 8 29 5 0
1 24 16 15 9 11 27 2 0
1 24 16 15 9 11 29 3 0
1 24 16 15 21 19 27 5 0
1 24 16 15 21 20 29 5 0
1 24 16 15 21 23 27 2 0
1 24 16 15 21 23 29 3 0
1 24 16 15 31 11 7 2 0
1 24 16 15 31 11 8 3 0
1 24 16 15 31 23 19 2 0
1 24 16 15 31 23 20 3 0
1 24 16 17 27 7 8 3 0
1 24 16 17 27 19 20 3 0
1 24 16 17 29 8 7 2 0
1 24 16 17 29 20 19 2 0
1 24 16 17 31 9 7 2 0
1 24 16 17 31 9 8 3 0
1 24 16 17 31 21 19 2 0
1 24 16 17 31 21 20 3 0
1 24 22 19 7 8 29 5 0
1 24 22 19 7 9 31 5 0
1 24 22 19 7 11 29 3 0
1 24 22 19 13 14 29 5 0
1 24 22 19 13 15 31 5 0
1 24 22 19 13 17 29 3 0
1 24 22 19 27 11 8 3 0
1 24 22 19 27 17 14 3 0
1 24 22 20 8 7 27 5 0
1 24 22 20 8 9 31 5 0
1 24 22 20 8 11 27 2 0
1 24 22 20 14 13 27 5 0
1 24 22 20 14 15 31 5 0
1 24 22 20 14 17 27 2 0
1 24 22 20 29 11 7 2 0
1 24 22 20 29 17 13 2 0
1 24 22 21 9 7 27 5 0
1 24 22 21 9 8 29 5 0
1 24 22 21 9 11 27 2 0
1 24 22 21 9 11 29 3 0
1 24 22 21 15 13 27 5 0
1 24 22 21 15 14 29 5 0
1 24 22 21 15 17 27 2 0
1 24 22 21 15 17 29 3 0
1 24 22 21 31 11 7 2 0
1 24 22 21 31 11 8 3 0
1 24 22 21 31 17 13 2 0
1 24 22 21 31 17 14 3 0
1 24 22 23 27 7 8 3 0
1 24 22 23 27 13 14 3 0
1 24 22 23 29 8 7 2 0
1 24 22 23 29 14 13 2 0
1 24 22 23 31 9 7 2 0
1 24 22 23 31 9 8 3 0
1 24 22 23 31 15 13 2 0
1 24 22 23 31 15 14 3 0
1 24 26 7 8 14 17 5 0
1 24 26 7 8 20 23 5 0
1 24 26 7 9 15 14 3 0
1 24 26 7 9 15 17 5 0
1 24 26 7 9 21 20 3 0
1 24 26 7 9 21 23 5 0
1 24 26 7 9 31 29 3 0
1 24 26 7 11 17 14 3 0
1 24 26 7 11 23 20 3 0
1 24 26 13 14 8 11 5 0
1 24 26 13 14 20 23 5 0
1 24 26 13 15 9 8 3 0
1 24 26 13 15 9 11 5 0
1 24 26 13 15 21 20 3 0
1 24 26 13 15 21 23 5 0
1 24 26 13 15 31 29 3 0
1 24 26 13 17 11 8 3 0
1 24 26 13 17 23 20 3 0
1 24 26 19 20 8 11 5 0
1 24 26 19 20 14 17 5 0
1 24 26 19 21 9 8 3 0
1 24 26 19 21 9 11 5 0
1 24 26 19 21 15 14 3 0
1 24 26 19 21 15 17 5 0
1 24 26 19 21 31 29 3 0
1 24 26 19 23 11 8 3 0
1 24 26 19 23 17 14 3 0
1 24 26 27 31 9 8 3 0
1 24 26 27 31 15 14 3 0
1 24 26 27 31 21 20 3 0
1 24 28 8 7 13 17 5 0
1 24 28 8 7 19 23 5 0
1 24 28 8 9 15 13 2 0
1 24 28 8 9 15 17 5 0
1 24 28 8 9 21 19 2 0
1 24 28 8 9 21 23 5 0
1 24 28 8 9 31 27 2 0
1 24 28 8 11 17 13 2 0
1 24 28 8 11 23 19 2 0
1 24 28 14 13 7 11 5 0
1 24 28 14 13 19 23 5 0
1 24 28 14 15 9 7 2 0
1 24 28 14 15 9 11 5 0
1 24 28 14 15 21 19 2 0
1 24 28 14 15 21 23 5 0
1 24 28 14 15 31 27 2 0
1 24 28 14 17 11 7 2 0
1 24 28 14 17 23 19 2 0
1 24 28 20 19 7 11 5 0
1 24 28 20 19 13 17 5 0
1 24 28 20 21 9 7 2 0
1 24 28 20 21 9 11 5 0
1 24 28 20 21 15 13 2 0
1 24 28 20 21 15 17 5 0
1 24 28 20 21 31 27 2 0
1 24 28 20 23 11 7 2 0
1 24 28 20 23 17 13 2 0
1 24 28 29 31 9 7 2 0
1 24 28 29 31 15 13 2 0
1 24 28 29 31 21 19 2 0
1 24 30 9 7 13 14 3 0
1 24 30 9 7 13 17 5 0
1 24 30 9 7 19 20 3 0
1 24 30 9 7 19 23 5 0
1 24 30 9 7 27 29 3 0
1 24 30 9 8 14 13 2 0
1 24 30 9 8 14 17 5 0
1 24 30 9 8 20 19 2 0
1 24 30 9 8 20 23 5 0
1 24 30 9 8 29 27 2 0
1 24 30 9 11 17 13 2 0
1 24 30 9 11 17 14 3 0
1 24 30 9 11 23 19 2 0
1 24 30 9 11 23 20 3 0
1 24 30 15 13 7 8 3 0
1 24 30 15 13 7 11 5 0
1 24 30 15 13 19 20 3 0
1 24 30 15 13 19 23 5 0
1 24 30 15 13 27 29 3 0
1 24 30 15 14 8 7 2 0
1 24 30 15 14 8 11 5 0
1 24 30 15 14 20 19 2 0
1 24 30 15 14 20 23 5 0
1 24 30 15 14 29 27 2 0
1 24 30 15 17 11 7 2 0
1 24 30 15 17 11 8 3 0
1 24 30 15 17 23 19 2 0
1 24 30 15 17 23 20 3 0
1 24 30 21 19 7 8 3 0
1 24 30 21 19 7 11 5 0
1 24 30 21 19 13 14 3 0
1 24 30 21 19 13 17 5 0
1 24 30 21 19 27 29 3 0
1 24 30 21 20 8 7 2 0
1 24 30 21 20 8 11 5 0
1 24 30 21 20 14 13 2 0
1 24 30 21 20 14 17 5 0
1 24 30 21 20 29 27 2 0
1 24 30 21 23 11 7 2 0
1 24 30 21 23 11 8 3 0
1 24 30 21 23 17 13 2 0
1 24 30 21 23 17 14 3 0
1 24 30 31 27 7 8 3 0
1 24 30 31 27 13 14 3 0
1 24 30 31 27 19 20 3 0
1 24 30 31 29 8 7 2 0
1 24 30 31 29 14 13 2 0
1 24 30 31 29 20 19 2 0
1 25 11 7 13 14 28 4 0
1 25 11 7 13 15 30 4 0
1 25 11 7 13 16 28 3 0
1 25 11 7 19 20 28 4 0
1 25 11 7 19 21 30 4 0
1 25 11 7 19 22 28 3 0
1 25 11 7 26 16 14 3 0
1 25 11 7 26 22 20 3 0
1 25 11 8 14 13 26 4 0
1 25 11 8 14 15 30 4 0
1 25 11 8 14 16 26 2 0
1 25 11 8 20 19 26 4 0
1 25 11 8 20 21 30 4 0
1 25 11 8 20 22 26 2 0
1 25 11 8 28 16 13 2 0
1 25 11 8 28 22 19 2 0
1 25 11 9 15 13 26 4 0
1 25 11 9 15 14 28 4 0
1 25 11 9 15 16 26 2 0
1 25 11 9 15 16 28 3 0
1 25 11 9 21 19 26 4 0
1 25 11 9 21 20 28 4 0
1 25 11 9 21 22 26 2 0
1 25 11 9 21 22 28 3 0
1 25 11 9 30 16 13 2 0
1 25 11 9 30 16 14 3 0
1 25 11 9 30 22 19 2 0
1 25 11 9 30 22 20 3 0
1 25 11 10 26 13 14 3 0
1 25 11 10 26 19 20 3 0
1 25 11 10 28 14 13 2 0
1 25 11 10 28 20 19 2 0
1 25 11 10 30 15 13 2 0
1 25 11 10 30 15 14 3 0
1 25 11 10 30 21 19 2 0
1 25 11 10 30 21 20 3 0
1 25 17 13 7 8 28 4 0
1 25 17 13 7 9 30 4 0
1 25 17 13 7 10 28 3 0
1 25 17 13 19 20 28 4 0
1 25 17 13 19 21 30 4 0
1 25 17 13 19 22 28 3 0
1 25 17 13 26 10 8 3 0
1 25 17 13 26 22 20 3 0
1 25 17 14 8 7 26 4 0
1 25 17 14 8 9 30 4 0
1 25 17 14 8 10 26 2 0
1 25 17 14 20 19 26 4 0
1 25 17 14 20 21 30 4 0
1 25 17 14 20 22 26 2 0
1 25 17 14 28 10 7 2 0
1 25 17 14 28 22 19 2 0
1 25 17 15 9 7 26 4 0
1 25 17 15 9 8 28 4 0
1 25 17 15 9 10 26 2 0
1 25 17 15 9 10 28 3 0
1 25 17 15 21 19 26 4 0
1 25 17 15 21 20 28 4 0
1 25 17 15 21 22 26 2 0
1 25 17 15 21 22 28 3 0
1 25 17 15 30 10 7 2 0
1 25 17 15 30 10 8 3 0
1 25 17 15 30 22 19 2 0
1 25 17 15 30 22 20 3 0
1 25 17 16 26 7 8 3 0
1 25 17 16 26 19 20 3 0
1 25 17 16 28 8 7 2 0
1 25 17 16 28 20 19 2 0
1 25 17 16 30 9 7 2 0
1 25 17 16 30 9 8 3 0
1 25 17 16 30 21 19 2 0
1 25 17 16 30 21 20 3 0
1 25 23 19 7 8 28 4 0
1 25 23 19 7 9 30 4 0
1 25 23 19 7 10 28 3 0
1 25 23 19 13 14 28 4 0
1 25 23 19 13 15 30 4 0
1 25 23 19 13 16 28 3 0
1 25 23 19 26 10 8 3 0
1 25 23 19 26 16 14 3 0
1 25 23 20 8 7 26 4 0
1 25 23 20 8 9 30 4 0
1 25 23 20 8 10 26 2 0
1 25 23 20 14 13 26 4 0
1 25 23 20 14 15 30 4 0
1 25 23 20 14 16 26 2 0
1 25 23 20 28 10 7 2 0
1 25 23 20 28 16 13 2 0
1 25 23 21 9 7 26 4 0
1 25 23 21 9 8 28 4 0
1 25 23 21 9 10 26 2 0
1 25 23 21 9 10 28 3 0
1 25 23 21 15 13 26 4 0
1 25 23 21 15 14 28 4 0
1 25 23 21 15 16 26 2 0
1 25 23 21 15 16 28 3 0
1 25 23 21 30 10 7 2 0
1 25 23 21 30 10 8 3 0
1 25 23 21 30 16 13 2 0
1 25 23 21 30 16 14 3 0
1 25 23 22 26 7 8 3 0
1 25 23 22 26 13 14 3 0
1 25 23 22 28 8 7 2 0
1 25 23 22 28 14 13 2 0
1 25 23 22 30 9 7 2 0
1 25 23 22 30 9 8 3 0
1 25 23 22 30 15 13 2 0
1 25 23 22 30 15 14 3 0
1 25 27 7 8 14 16 4 0
1 25 27 7 8 20 22 4 0
1 25 27 7 9 15 14 3 0
1 25 27 7 9 15 16 4 0
1 25 27 7 9 21 20 3 0
1 25 27 7 9 21 22 4 0
1 25 27 7 9 30 28 3 0
1 25 27 7 10 16 14 3 0
1 25 27 7 10 22 20 3 0
1 25 27 13 14 8 10 4 0
1 25 27 13 14 20 22 4 0
1 25 27 13 15 9 8 3 0
1 25 27 13 15 9 10 4 0
1 25 27 13 15 21 20 3 0
1 25 27 13 15 21 22 4 0
1 25 27 13 15 30 28 3 0
1 25 27 13 16 10 8 3 0
1 25 27 13 16 22 20 3 0
1 25 27 19 20 8 10 4 0
1 25 27 19 20 14 16 4 0
1 25 27 19 21 9 8 3 0
1 25 27 19 21 9 10 4 0
1 25 27 19 21 15 14 3 0
1 25 27 19 21 15 16 4 0
1 25 27 19 21 30 28 3 0
1 25 27 19 22 10 8 3 0
1 25 27 19 22 16 14 3 0
1 25 27 26 30 9 8 3 0
1 25 27 26 30 15 14 3 0
1 25 27 26 30 21 20 3 0
1 25 29 8 7 13 16 4 0
1 25 29 8 7 19 22 4 0
1 25 29 8 9 15 13 2 0
1 25 29 8 9 15 16 4 0
1 25 29 8 9 21 19 2 0
1 25 29 8 9 21 22 4 0
1 25 29 8 9 30 26 2 0
1 25 29 8 10 16 13 2 0
1 25 29 8 10 22 19 2 0
1 25 29 14 13 7 10 4 0
1 25 29 14 13 19 22 4 0
1 25 29 14 15 9 7 2 0
1 25 29 14 15 9 10 4 0
1 25 29 14 15 21 19 2 0
1 25 29 14 15 21 22 4 0
1 25 29 14 15 30 26 2 0
1 25 29 14 16 10 7 2 0
1 25 29 14 16 22 19 2 0
1 25 29 20 19 7 10 4 0
1 25 29 20 19 13 16 4 0
1 25 29 20 21 9 7 2 0
1 25 29 20 21 9 10 4 0
1 25 29 20 21 15 13 2 0
1 25 29 20 21 15 16 4 0
1 25 29 20 21 30 26 2 0
1 25 29 20 22 10 7 2 0
1 25 29 20 22 16 13 2 0
1 25 29 28 30 9 7 2 0
1 25 29 28 30 15 13 2 0
1 25 29 28 30 21 19 2 0
1 25 31 9 7 13 14 3 0
1 25 31 9 7 13 16 4 0
1 25 31 9 7 19 20 3 0
1 25 31 9 7 19 22 4 0
1 25 31 9 7 26 28 3 0
1 25 31 9 8 14 13 2 0
1 25 31 9 8 14 16 4 0
1 25 31 9 8 20 19 2 0
1 25 31 9 8 20 22 4 0
1 25 31 9 8 28 26 2 0
1 25 31 9 10 16 13 2 0
1 25 31 9 10 16 14 3 0
1 25 31 9 10 22 19 2 0
1 25 31 9 10 22 20 3 0
1 25 31 15 13 7 8 3 0
1 25 31 15 13 7 10 4 0
1 25 31 15 13 19 20 3 0
1 25 31 15 13 19 22 4 0
1 25 31 15 13 26 28 3 0
1 25 31 15 14 8 7 2 0
1 25 31 15 14 8 10 4 0
1 25 31 15 14 20 19 2 0
1 25 31 15 14 20 22 4 0
1 25 31 15 14 28 26 2 0
1 25 31 15 16 10 7 2 0
1 25 31 15 16 10 8 3 0
1 25 31 15 16 22 19 2 0
1 25 31 15 16 22 20 3 0
1 25 31 21 19 7 8 3 0
1 25 31 21 19 7 10 4 0
1 25 31 21 19 13 14 3 0
1 25 31 21 19 13 16 4 0
1 25 31 21 19 26 28 3 0
1 25 31 21 20 8 7 2 0
1 25 31 21 20 8 10 4 0
1 25 31 21 20 14 13 2 0
1 25 31 21 20 14 16 4 0
1 25 31 21 20 28 26 2 0
1 25 31 21 22 10 7 2 0
1 25 31 21 22 10 8 3 0
1 25 31 21 22 16 13 2 0
1 25 31 21 22 16 14 3 0
1 25 31 30 26 7 8 3 0
1 25 31 30 26 13 14 3 0
1 25 31 30 26 19 20 3 0
1 25 31 30 28 8 7 2 0
1 25 31 30 28 14 13 2 0
1 25 31 30 28 20 19 2 0
2 7 6 12 14 20 22 4 0
2 7 6 12 14 20 23 5 0
2 7 6 12 15 21 20 3 0
2 7 6 12 15 21 22 4 0
2 7 6 12 15 21 23 5 0
2 7 6 12 15 30 28 3 0
2 7 6 12 15 31 29 3 0
2 7 6 12 16 22 20 3 0
2 7 6 12 16 22 23 5 0
2 7 6 12 16 28 29 5 0
2 7 6 12 16 30 31 5 0
2 7 6 12 17 23 20 3 0
2 7 6 12 17 23 22 4 0
2 7 6 12 17 29 28 4 0
2 7 6 12 17 31 30 4 0
2 7 6 18 20 14 16 4 0
2 7 6 18 20 14 17 5 0
2 7 6 18 21 15 14 3 0
2 7 6 18 21 15 16 4 0
2 7 6 18 21 15 17 5 0
2 7 6 18 21 30 28 3 0
2 7 6 18 21 31 29 3 0
2 7 6 18 22 16 14 3 0
2 7 6 18 22 16 17 5 0
2 7 6 18 22 28 29 5 0
2 7 6 18 22 30 31 5 0
2 7 6 18 23 17 14 3 0
2 7 6 18 23 17 16 4 0
2 7 6 18 23 29 28 4 0
2 7 6 18 23 31 30 4 0
2 7 6 24 16 14 29 5 0
2 7 6 24 16 15 31 5 0
2 7 6 24 16 17 29 3 0
2 7 6 24 22 20 29 5 0
2 7 6 24 22 21 31 5 0
2 7 6 24 22 23 29 3 0
2 7 6 24 28 14 17 5 0
2 7 6 24 28 20 23 5 0
2 7 6 24 30 15 14 3 0
2 7 6 24 30 15 17 5 0
2 7 6 24 30 21 20 3 0
2 7 6 24 30 21 23 5 0
2 7 6 24 30 31 29 3 0
2 7 6 25 17 14 28 4 0
2 7 6 25 17 15 30 4 0
2 7 6 25 17 16 28 3 0
2 7 6 25 23 20 28 4 0
2 7 6 25 23 21 30 4 0
2 7 6 25 23 22 28 3 0
2 7 6 25 29 14 16 4 0
2 7 6 25 29 20 22 4 0
2 7 6 25 31 15 14 3 0
2 7 6 25 31 15 16 4 0
2 7 6 25 31 21 20 3 0
2 7 6 25 31 21 22 4 0
2 7 6 25 31 30 28 3 0
2 7 8 14 12 18 22 4 0
2 7 8 14 12 18 23 5 0
2 7 8 14 15 21 22 4 0
2 7 8 14 15 21 23 5 0
2 7 8 14 16 22 23 5 0
2 7 8 14 16 24 25 5 0
2 7 8 14 16 30 31 5 0
2 7 8 14 17 23 22 4 0
2 7 8 14 17 25 24 4 0
2 7 8 14 17 31 30 4 0
2 7 8 20 18 12 16 4 0
2 7 8 20 18 12 17 5 0
2 7 8 20 21 15 16 4 0
2 7 8 20 21 15 17 5 0
2 7 8 20 22 16 17 5 0
2 7 8 20 22 24 25 5 0
2 7 8 20 22 30 31 5 0
2 7 8 20 23 17 16 4 0
2 7 8 20 23 25 24 4 0
2 7 8 20 23 31 30 4 0
2 7 8 28 16 12 25 5 0
2 7 8 28 16 15 31 5 0
2 7 8 28 22 18 25 5 0
2 7 8 28 22 21 31 5 0
2 7 8 28 24 12 17 5 0
2 7 8 28 24 18 23 5 0
2 7 8 28 30 15 17 5 0
2 7 8 28 30 21 23 5 0
2 7 8 29 17 12 24 4 0
2 7 8 29 17 15 30 4 0
2 7 8 29 23 18 24 4 0
2 7 8 29 23 21 30 4 0
2 7 8 29 25 12 16 4 0
2 7 8 29 25 18 22 4 0
2 7 8 29 31 15 16 4 0
2 7 8 29 31 21 22 4 0
2 7 9 15 12 18 20 3 0
2 7 9 15 12 18 22 4 0
2 7 9 15 12 18 23 5 0
2 7 9 15 12 24 28 3 0
2 7 9 15 12 25 29 3 0
2 7 9 15 14 20 22 4 0
2 7 9 15 14 20 23 5 0
2 7 9 15 16 22 20 3 0
2 7 9 15 16 22 23 5 0
2 7 9 15 16 24 25 5 0
2 7 9 15 16 28 29 5 0
2 7 9 15 17 23 20 3 0
2 7 9 15 17 23 22 4 0
2 7 9 15 17 25 24 4 0
2 7 9 15 17 29 28 4 0
2 7 9 21 18 12 14 3 0
2 7 9 21 18 12 16 4 0
2 7 9 21 18 12 17 5 0
2 7 9 21 18 24 28 3 0
2 7 9 21 18 25 29 3 0
2 7 9 21 20 14 16 4 0
2 7 9 21 20 14 17 5 0
2 7 9 21 22 16 14 3 0
2 7 9 21 22 16 17 5 0
2 7 9 21 22 24 25 5 0
2 7 9 21 22 28 29 5 0
2 7 9 21 23 17 14 3 0
2 7 9 21 23 17 16 4 0
2 7 9 21 23 25 24 4 0
2 7 9 21 23 29 28 4 0
2 7 9 30 16 12 25 5 0
2 7 9 30 16 14 29 5 0
2 7 9 30 16 17 29 3 0
2 7 9 30 22 18 25 5 0
2 7 9 30 22 20 29 5 0
2 7 9 30 22 23 29 3 0
2 7 9 30 24 12 14 3 0
2 7 9 30 24 12 17 5 0
2 7 9 30 24 18 20 3 0
2 7 9 30 24 18 23 5 0
2 7 9 30 24 25 29 3 0
2 7 9 30 28 14 17 5 0
2 7 9 30 28 20 23 5 0
2 7 9 31 17 12 24 4 0
2 7 9 31 17 14 28 4 0
2 7 9 31 17 16 28 3 0
2 7 9 31 23 18 24 4 0
2 7 9 31 23 20 28 4 0
2 7 9 31 23 22 28 3 0
2 7 9 31 25 12 14 3 0
2 7 9 31 25 12 16 4 0
2 7 9 31 25 18 20 3 0
2 7 9 31 25 18 22 4 0
2 7 9 31 25 24 28 3 0
2 7 9 31 29 14 16 4 0
2 7 9 31 29 20 22 4 0
2 7 10 16 12 18 20 3 0
2 7 10 16 12 18 23 5 0
2 7 10 16 12 25 29 3 0
2 7 10 16 14 20 23 5 0
2 7 10 16 15 21 20 3 0
2 7 10 16 15 21 23 5 0
2 7 10 16 15 31 29 3 0
2 7 10 16 17 23 20 3 0
2 7 10 22 18 12 14 3 0
2 7 10 22 18 12 17 5 0
2 7 10 22 18 25 29 3 0
2 7 10 22 20 14 17 5 0
2 7 10 22 21 15 14 3 0
2 7 10 22 21 15 17 5 0
2 7 10 22 21 31 29 3 0
2 7 10 22 23 17 14 3 0
2 7 10 24 12 14 29 5 0
2 7 10 24 12 15 31 5 0
2 7 10 24 12 17 29 3 0
2 7 10 24 18 20 29 5 0
2 7 10 24 18 21 31 5 0
2 7 10 24 18 23 29 3 0
2 7 10 24 25 17 14 3 0
2 7 10 24 25 23 20 3 0
2 7 10 28 14 12 25 5 0
2 7 10 28 14 15 31 5 0
2 7 10 28 20 18 25 5 0
2 7 10 28 20 21 31 5 0
2 7 10 30 15 12 25 5 0
2 7 10 30 15 14 29 5 0
2 7 10 30 15 17 29 3 0
2 7 10 30 21 18 25 5 0
2 7 10 30 21 20 29 5 0
2 7 10 30 21 23 29 3 0
2 7 10 30 31 17 14 3 0
2 7 10 30 31 23 20 3 0
2 7 11 17 12 18 20 3 0
2 7 11 17 12 18 22 4 0
2 7 11 17 12 24 28 3 0
2 7 11 17 14 20 22 4 0
2 7 11 17 15 21 20 3 0
2 7 11 17 15 21 22 4 0
2 7 11 17 15 30 28 3 0
2 7 11 17 16 22 20 3 0
2 7 11 23 18 12 14 3 0
2 7 11 23 18 12 16 4 0
2 7 11 23 18 24 28 3 0
2 7 11 23 20 14 16 4 0
2 7 11 23 21 15 14 3 0
2 7 11 23 21 15 16 4 0
2 7 11 23 21 30 28 3 0
2 7 11 23 22 16 14 3 0
2 7 11 25 12 14 28 4 0
2 7 11 25 12 15 30 4 0
2 7 11 25 12 16 28 3 0
2 7 11 25 18 20 28 4 0
2 7 11 25 18 21 30 4 0
2 7 11 25 18 22 28 3 0
2 7 11 25 24 16 14 3 0
2 7 11 25 24 22 20 3 0
2 7 11 29 14 12 24 4 0
2 7 11 29 14 15 30 4 0
2 7 11 29 20 18 24 4 0
2 7 11 29 20 21 30 4 0
2 7 11 31 15 12 24 4 0
2 7 11 31 15 14 28 4 0
2 7 11 31 15 16 28 3 0
2 7 11 31 21 18 24 4 0
2 7 11 31 21 20 28 4 0
2 7 11 31 21 22 28 3 0
2 7 11 31 30 16 14 3 0
2 7 11 31 30 22 20 3 0
2 13 12 6 8 20 22 4 0
2 13 12 6 8 20 23 5 0
2 13 12 6 9 21 20 3 0
2 13 12 6 9 21 22 4 0
2 13 12 6 9 21 23 5 0
2 13 12 6 9 30 28 3 0
2 13 12 6 9 31 29 3 0
2 13 12 6 10 22 20 3 0
2 13 12 6 10 22 23 5 0
2 13 12 6 10 28 29 5 0
2 13 12 6 10 30 31 5 0
2 13 12 6 11 23 20 3 0
2 13 12 6 11 23 22 4 0
2 13 12 6 11 29 28 4 0
2 13 12 6 11 31 30 4 0
2 13 12 18 20 8 10 4 0
2 13 12 18 20 8 11 5 0
2 13 12 18 21 9 8 3 0
2 13 12 18 21 9 10 4 0
2 13 12 18 21 9 11 5 0
2 13 12 18 21 30 28 3 0
2 13 12 18 21 31 29 3 0
2 13 12 18 22 10 8 3 0
2 13 12 18 22 10 11 5 0
2 13 12 18 22 28 29 5 0
2 13 12 18 22 30 31 5 0
2 13 12 18 23 11 8 3 0
2 13 12 18 23 11 10 4 0
2 13 12 18 23 29 28 4 0
2 13 12 18 23 31 30 4 0
2 13 12 24 10 8 29 5 0
2 13 12 24 10 9 31 5 0
2 13 12 24 10 11 29 3 0
2 13 12 24 22 20 29 5 0
2 13 12 24 22 21 31 5 0
2 13 12 24 22 23 29 3 0
2 13 12 24 28 8 11 5 0
2 13 12 24 28 20 23 5 0
2 13 12 24 30 9 8 3 0
2 13 12 24 30 9 11 5 0
2 13 12 24 30 21 20 3 0
2 13 12 24 30 21 23 5 0
2 13 12 24 30 31 29 3 0
2 13 12 25 11 8 28 4 0
2 13 12 25 11 9 30 4 0
2 13 12 25 11 10 28 3 0
2 13 12 25 23 20 28 4 0
2 13 12 25 23 21 30 4 0
2 13 12 25 23 22 28 3 0
2 13 12 25 29 8 10 4 0
2 13 12 25 29 20 22 4 0
2 13 12 25 31 9 8 3 0
2 13 12 25 31 9 10 4 0
2 13 12 25 31 21 20 3 0
2 13 12 25 31 21 22 4 0
2 13 12 25 31 30 28 3 0
2 13 14 8 6 18 22 4 0
2 13 14 8 6 18 23 5 0
2 13 14 8 9 21 22 4 0
2 13 14 8 9 21 23 5 0
2 13 14 8 10 22 23 5 0
2 13 14 8 10 24 25 5 0
2 13 14 8 10 30 31 5 0
2 13 14 8 11 23 22 4 0
2 13 14 8 11 25 24 4 0
2 13 14 8 11 31 30 4 0
2 13 14 20 18 6 10 4 0
2 13 14 20 18 6 11 5 0
2 13 14 20 21 9 10 4 0
2 13 14 20 21 9 11 5 0
2 13 14 20 22 10 11 5 0
2 13 14 20 22 24 25 5 0
2 13 14 20 22 30 31 5 0
2 13 14 20 23 11 10 4 0
2 13 14 20 23 25 24 4 0
2 13 14 20 23 31 30 4 0
2 13 14 28 10 6 25 5 0
2 13 14 28 10 9 31 5 0
2 13 14 28 22 18 25 5 0
2 13 14 28 22 21 31 5 0
2 13 14 28 24 6 11 5 0
2 13 14 28 24 18 23 5 0
2 13 14 28 30 9 11 5 0
2 13 14 28 30 21 23 5 0
2 13 14 29 11 6 24 4 0
2 13 14 29 11 9 30 4 0
2 13 14 29 23 18 24 4 0
2 13 14 29 23 21 30 4 0
2 13 14 29 25 6 10 4 0
2 13 14 29 25 18 22 4 0
2 13 14 29 31 9 10 4 0
2 13 14 29 31 21 22 4 0
2 13 15 9 6 18 20 3 0
2 13 15 9 6 18 22 4 0
2 13 15 9 6 18 23 5 0
2 13 15 9 6 24 28 3 0
2 13 15 9 6 25 29 3 0
2 13 15 9 8 20 22 4 0
2 13 15 9 8 20 23 5 0
2 13 15 9 10 22 20 3 0
2 13 15 9 10 22 23 5 0
2 13 15 9 10 24 25 5 0
2 13 15 9 10 28 29 5 0
2 13 15 9 11 23 20 3 0
2 13 15 9 11 23 22 4 0
2 13 15 9 11 25 24 4 0
2 13 15 9 11 29 28 4 0
2 13 15 21 18 6 8 3 0
2 13 15 21 18 6 10 4 0
2 13 15 21 18 6 11 5 0
2 13 15 21 18 24 28 3 0
2 13 15 21 18 25 29 3 0
2 13 15 21 20 8 10 4 0
2 13 15 21 20 8 11 5 0
2 13 15 21 22 10 8 3 0
2 13 15 21 22 10 11 5 0
2 13 15 21 22 24 25 5 0
2 13 15 21 22 28 29 5 0
2 13 15 21 23 11 8 3 0
2 13 15 21 23 11 10 4 0
2 13 15 21 23 25 24 4 0
2 13 15 21 23 29 28 4 0
2 13 15 30 10 6 25 5 0
2 13 15 30 10 8 29 5 0
2 13 15 30 10 11 29 3 0
2 13 15 30 22 18 25 5 0
2 13 15 30 22 20 29 5 0
2 13 15 30 22 23 29 3 0
2 13 15 30 24 6 8 3 0
2 13 15 30 24 6 11 5 0
2 13 15 30 24 18 20 3 0
2 13 15 30 24 18 23 5 0
2 13 15 30 24 25 29 3 0
2 13 15 30 28 8 11 5 0
2 13 15 30 28 20 23 5 0
2 13 15 31 11 6 24 4 0
2 13 15 31 11 8 28 4 0
2 13 15 31 11 10 28 3 0
2 13 15 31 23 18 24 4 0
2 13 15 31 23 20 28 4 0
2 13 15 31 23 22 28 3 0
2 13 15 31 25 6 8 3 0
2 13 15 31 25 6 10 4 0
2 13 15 31 25 18 20 3 0
2 13 15 31 25 18 22 4 0
2 13 15 31 25 24 28 3 0
2 13 15 31 29 8 10 4 0
2 13 15 31 29 20 22 4 0
2 13 16 10 6 18 20 3 0
2 13 16 10 6 18 23 5 0
2 13 16 10 6 25 29 3 0
2 13 16 10 8 20 23 5 0
2 13 16 10 9 21 20 3 0
2 13 16 10 9 21 23 5 0
2 13 16 10 9 31 29 3 0
2 13 16 10 11 23 20 3 0
2 13 16 22 18 6 8 3 0
2 13 16 22 18 6 11 5 0
2 13 16 22 18 25 29 3 0
2 13 16 22 20 8 11 5 0
2 13 16 22 21 9 8 3 0
2 13 16 22 21 9 11 5 0
2 13 16 22 21 31 29 3 0
2 13 16 22 23 11 8 3 0
2 13 16 24 6 8 29 5 0
2 13 16 24 6 9 31 5 0
2 13 16 24 6 11 29 3 0
2 13 16 24 18 20 29 5 0
2 13 16 24 18 21 31 5 0
2 13 16 24 18 23 29 3 0
2 13 16 24 25 11 8 3 0
2 13 16 24 25 23 20 3 0
2 13 16 28 8 6 25 5 0
2 13 16 28 8 9 31 5 0
2 13 16 28 20 18 25 5 0
2 13 16 28 20 21 31 5 0
2 13 16 30 9 6 25 5 0
2 13 16 30 9 8 29 5 0
2 13 16 30 9 11 29 3 0
2 13 16 30 21 18 25 5 0
2 13 16 30 21 20 29 5 0
2 13 16 30 21 23 29 3 0
2 13 16 30 31 11 8 3 0
2 13 16 30 31 23 20 3 0
2 13 17 11 6 18 20 3 0
2 13 17 11 6 18 22 4 0
2 13 17 11 6 24 28 3 0
2 13 17 11 8 20 22 4 0
2 13 17 11 9 21 20 3 0
2 13 17 11 9 21 22 4 0
2 13 17 11 9 30 28 3 0
2 13 17 11 10 22 20 3 0
2 13 17 23 18 6 8 3 0
2 13 17 23 18 6 10 4 0
2 13 17 23 18 24 28 3 0
2 13 17 23 20 8 10 4 0
2 13 17 23 21 9 8 3 0
2 13 17 23 21 9 10 4 0
2 13 17 23 21 30 28 3 0
2 13 17 23 22 10 8 3 0
2 13 17 25 6 8 28 4 0
2 13 17 25 6 9 30 4 0
2 13 17 25 6 10 28 3 0
2 13 17 25 18 20 28 4 0
2 13 17 25 18 21 30 4 0
2 13 17 25 18 22 28 3 0
2 13 17 25 24 10 8 3 0
2 13 17 25 24 22 20 3 0
2 13 17 29 8 6 24 4 0
2 13 17 29 8 9 30 4 0
2 13 17 29 20 18 24 4 0
2 13 17 29 20 21 30 4 0
2 13 17 31 9 6 24 4 0
2 13 17 31 9 8 28 4 0
2 13 17 31 9 10 28 3 0
2 13 17 31 21 18 24 4 0
2 13 17 31 21 20 28 4 0
2 13 17 31 21 22 28 3 0
2 13 17 31 30 10 8 3 0
2 13 17 31 30 22 20 3 0
2 19 18 6 8 14 16 4 0
2 19 18 6 8 14 17 5 0
2 19 18 6 9 15 14 3 0
2 19 18 6 9 15 16 4 0
2 19 18 6 9 15 17 5 0
2 19 18 6 9 30 28 3 0
2 19 18 6 9 31 29 3 0
2 19 18 6 10 16 14 3 0
2 19 18 6 10 16 17 5 0
2 19 18 6 10 28 29 5 0
2 19 18 6 10 30 31 5 0
2 19 18 6 11 17 14 3 0
2 19 18 6 11 17 16 4 0
2 19 18 6 11 29 28 4 0
2 19 18 6 11 31 30 4 0
2 19 18 12 14 8 10 4 0
2 19 18 12 14 8 11 5 0
2 19 18 12 15 9 8 3 0
2 19 18 12 15 9 10 4 0
2 19 18 12 15 9 11 5 0
2 19 18 12 15 30 28 3 0
2 19 18 12 15 31 29 3 0
2 19 18 12 16 10 8 3 0
2 19 18 12 16 10 11 5 0
2 19 18 12 16 28 29 5 0
2 19 18 12 16 30 31 5 0
2 19 18 12 17 11 8 3 0
2 19 18 12 17 11 10 4 0
2 19 18 12 17 29 28 4 0
2 19 18 12 17 31 30 4 0
2 19 18 24 10 8 29 5 0
2 19 18 24 10 9 31 5 0
2 19 18 24 10 11 29 3 0
2 19 18 24 16 14 29 5 0
2 19 18 24 16 15 31 5 0
2 19 18 24 16 17 29 3 0
2 19 18 24 28 8 11 5 0
2 19 18 24 28 14 17 5 0
2 19 18 24 30 9 8 3 0
2 19 18 24 30 9 11 5 0
2 19 18 24 30 15 14 3 0
2 19 18 24 30 15 17 5 0
2 19 18 24 30 31 29 3 0
2 19 18 25 11 8 28 4 0
2 19 18 25 11 9 30 4 0
2 19 18 25 11 10 28 3 0
2 19 18 25 17 14 28 4 0
2 19 18 25 17 15 30 4 0
2 19 18 25 17 16 28 3 0
2 19 18 25 29 8 10 4 0
2 19 18 25 29 14 16 4 0
2 19 18 25 31 9 8 3 0
2 19 18 25 31 9 10 4 0
2 19 18 25 31 15 14 3 0
2 19 18 25 31 15 16 4 0
2 19 18 25 31 30 28 3 0
2 19 20 8 6 12 16 4 0
2 19 20 8 6 12 17 5 0
2 19 20 8 9 15 16 4 0
2 19 20 8 9 15 17 5 0
2 19 20 8 10 16 17 5 0
2 19 20 8 10 24 25 5 0
2 19 20 8 10 30 31 5 0
2 19 20 8 11 17 16 4 0
2 19 20 8 11 25 24 4 0
2 19 20 8 11 31 30 4 0
2 19 20 14 12 6 10 4 0
2 19 20 14 12 6 11 5 0
2 19 20 14 15 9 10 4 0
2 19 20 14 15 9 11 5 0
2 19 20 14 16 10 11 5 0
2 19 20 14 16 24 25 5 0
2 19 20 14 16 30 31 5 0
2 19 20 14 17 11 10 4 0
2 19 20 14 17 25 24 4 0
2 19 20 14 17 31 30 4 0
2 19 20 28 10 6 25 5 0
2 19 20 28 10 9 31 5 0
2 19 20 28 16 12 25 5 0
2 19 20 28 16 15 31 5 0
2 19 20 28 24 6 11 5 0
2 19 20 28 24 12 17 5 0
2 19 20 28 30 9 11 5 0
2 19 20 28 30 15 17 5 0
2 19 20 29 11 6 24 4 0
2 19 20 29 11 9 30 4 0
2 19 20 29 17 12 24 4 0
2 19 20 29 17 15 30 4 0
2 19 20 29 25 6 10 4 0
2 19 20 29 25 12 16 4 0
2 19 20 29 31 9 10 4 0
2 19 20 29 31 15 16 4 0
2 19 21 9 6 12 14 3 0
2 19 21 9 6 12 16 4 0
2 19 21 9 6 12 17 5 0
2 19 21 9 6 24 28 3 0
2 19 21 9 6 25 29 3 0
2 19 21 9 8 14 16 4 0
2 19 21 9 8 14 17 5 0
2 19 21 9 10 16 14 3 0
2 19 21 9 10 16 17 5 0
2 19 21 9 10 24 25 5 0
2 19 21 9 10 28 29 5 0
2 19 21 9 11 17 14 3 0
2 19 21 9 11 17 16 4 0
2 19 21 9 11 25 24 4 0
2 19 21 9 11 29 28 4 0
2 19 21 15 12 6 8 3 0
2 19 21 15 12 6 10 4 0
2 19 21 15 12 6 11 5 0
2 19 21 15 12 24 28 3 0
2 19 21 15 12 25 29 3 0
2 19 21 15 14 8 10 4 0
2 19 21 15 14 8 11 5 0
2 19 21 15 16 10 8 3 0
2 19 21 15 16 10 11 5 0
2 19 21 15 16 24 25 5 0
2 19 21 15 16 28 29 5 0
2 19 21 15 17 11 8 3 0
2 19 21 15 17 11 10 4 0
2 19 21 15 17 25 24 4 0
2 19 21 15 17 29 28 4 0
2 19 21 30 10 6 25 5 0
2 19 21 30 10 8 29 5 0
2 19 21 30 10 11 29 3 0
2 19 21 30 16 12 25 5 0
2 19 21 30 16 14 29 5 0
2 19 21 30 16 17 29 3 0
2 19 21 30 24 6 8 3 0
2 19 21 30 24 6 11 5 0
2 19 21 30 24 12 14 3 0
2 19 21 30 24 12 17 5 0
2 19 21 30 24 25 29 3 0
2 19 21 30 28 8 11 5 0
2 19 21 30 28 14 17 5 0
2 19 21 31 11 6 24 4 0
2 19 21 31 11 8 28 4 0
2 19 21 31 11 10 28 3 0
2 19 21 31 17 12 24 4 0
2 19 21 31 17 14 28 4 0
2 19 21 31 17 16 28 3 0
2 19 21 31 25 6 8 3 0
2 19 21 31 25 6 10 4 0
2 19 21 31 25 12 14 3 0
2 19 21 31 25 12 16 4 0
2 19 21 31 25 24 28 3 0
2 19 21 31 29 8 10 4 0
2 19 21 31 29 14 16 4 0
2 19 22 10 6 12 14 3 0
2 19 22 10 6 12 17 5 0
2 19 22 10 6 25 29 3 0
2 19 22 10 8 14 17 5 0
2 19 22 10 9 15 14 3 0
2 19 22 10 9 15 17 5 0
2 19 22 10 9 31 29 3 0
2 19 22 10 11 17 14 3 0
2 19 22 16 12 6 8 3 0
2 19 22 16 12 6 11 5 0
2 19 22 16 12 25 29 3 0
2 19 22 16 14 8 11 5 0
2 19 22 16 15 9 8 3 0
2 19 22 16 15 9 11 5 0
2 19 22 16 15 31 29 3 0
2 19 22 16 17 11 8 3 0
2 19 22 24 6 8 29 5 0
2 19 22 24 6 9 31 5 0
2 19 22 24 6 11 29 3 0
2 19 22 24 12 14 29 5 0
2 19 22 24 12 15 31 5 0
2 19 22 24 12 17 29 3 0
2 19 22 24 25 11 8 3 0
2 19 22 24 25 17 14 3 0
2 19 22 28 8 6 25 5 0
2 19 22 28 8 9 31 5 0
2 19 22 28 14 12 25 5 0
2 19 22 28 14 15 31 5 0
2 19 22 30 9 6 25 5 0
2 19 22 30 9 8 29 5 0
2 19 22 30 9 11 29 3 0
2 19 22 30 15 12 25 5 0
2 19 22 30 15 14 29 5 0
2 19 22 30 15 17 29 3 0
2 19 22 30 31 11 8 3 0
2 19 22 30 31 17 14 3 0
2 19 23 11 6 12 14 3 0
2 19 23 11 6 12 16 4 0
2 19 23 11 6 24 28 3 0
2 19 23 11 8 14 16 4 0
2 19 23 11 9 15 14 3 0
2 19 23 11 9 15 16 4 0
2 19 23 11 9 30 28 3 0
2 19 23 11 10 16 14 3 0
2 19 23 17 12 6 8 3 0
2 19 23 17 12 6 10 4 0
2 19 23 17 12 24 28 3 0
2 19 23 17 14 8 10 4 0
2 19 23 17 15 9 8 3 0
2 19 23 17 15 9 10 4 0
2 19 23 17 15 30 28 3 0
2 19 23 17 16 10 8 3 0
2 19 23 25 6 8 28 4 0
2 19 23 25 6 9 30 4 0
2 19 23 25 6 10 28 3 0
2 19 23 25 12 14 28 4 0
2 19 23 25 12 15 30 4 0
2 19 23 25 12 16 28 3 0
2 19 23 25 24 10 8 3 0
2 19 23 25 24 16 14 3 0
2 19 23 29 8 6 24 4 0
2 19 23 29 8 9 30 4 0
2 19 23 29 14 12 24 4 0
2 19 23 29 14 15 30 4 0
2 19 23 31 9 6 24 4 0
2 19 23 31 9 8 28 4 0
2 19 23 31 9 10 28 3 0
2 19 23 31 15 12 24 4 0
2 19 23 31 15 14 28 4 0
2 19 23 31 15 16 28 3 0
2 19 23 31 30 10 8 3 0
2 19 23 31 30 16 14 3 0
2 26 10 6 12 14 29 5 0
2 26 10 6 12 15 31 5 0
2 26 10 6 12 17 29 3 0
2 26 10 6 18 20 29 5 0
2 26 10 6 18 21 31 5 0
2 26 10 6 18 23 29 3 0
2 26 10 6 25 17 14 3 0
2 26 10 6 25 23 20 3 0
2 26 10 8 14 12 25 5 0
2 26 10 8 14 15 31 5 0
2 26 10 8 20 18 25 5 0
2 26 10 8 20 21 31 5 0
2 26 10 9 15 12 25 5 0
2 26 10 9 15 14 29 5 0
2 26 10 9 15 17 29 3 0
2 26 10 9 21 18 25 5 0
2 26 10 9 21 20 29 5 0
2 26 10 9 21 23 29 3 0
2 26 10 9 31 17 14 3 0
2 26 10 9 31 23 20 3 0
2 26 10 11 25 12 14 3 0
2 26 10 11 25 18 20 3 0
2 26 10 11 31 15 14 3 0
2 26 10 11 31 21 20 3 0
2 26 16 12 6 8 29 5 0
2 26 16 12 6 9 31 5 0
2 26 16 12 6 11 29 3 0
2 26 16 12 18 20 29 5 0
2 26 16 12 18 21 31 5 0
2 26 16 12 18 23 29 3 0
2 26 16 12 25 11 8 3 0
2 26 16 12 25 23 20 3 0
2 26 16 14 8 6 25 5 0
2 26 16 14 8 9 31 5 0
2 26 16 14 20 18 25 5 0
2 26 16 14 20 21 31 5 0
2 26 16 15 9 6 25 5 0
2 26 16 15 9 8 29 5 0
2 26 16 15 9 11 29 3 0
2 26 16 15 21 18 25 5 0
2 26 16 15 21 20 29 5 0
2 26 16 15 21 23 29 3 0
2 26 16 15 31 11 8 3 0
2 26 16 15 31 23 20 3 0
2 26 16 17 25 6 8 3 0
2 26 16 17 25 18 20 3 0
2 26 16 17 31 9 8 3 0
2 26 16 17 31 21 20 3 0
2 26 22 18 6 8 29 5 0
2 26 22 18 6 9 31 5 0
2 26 22 18 6 11 29 3 0
2 26 22 18 12 14 29 5 0
2 26 22 18 12 15 31 5 0
2 26 22 18 12 17 29 3 0
2 26 22 18 25 11 8 3 0
2 26 22 18 25 17 14 3 0
2 26 22 20 8 6 25 5 0
2 26 22 20 8 9 31 5 0
2 26 22 20 14 12 25 5 0
2 26 22 20 14 15 31 5 0
2 26 22 21 9 6 25 5 0
2 26 22 21 9 8 29 5 0
2 26 22 21 9 11 29 3 0
2 26 22 21 15 12 25 5 0
2 26 22 21 15 14 29 5 0
2 26 22 21 15 17 29 3 0
2 26 22 21 31 11 8 3 0
2 26 22 21 31 17 14 3 0
2 26 22 23 25 6 8 3 0
2 26 22 23 25 12 14 3 0
2 26 22 23 31 9 8 3 0
2 26 22 23 31 15 14 3 0
2 26 24 6 8 14 17 5 0
2 26 24 6 8 20 23 5 0
2 26 24 6 9 15 14 3 0
2 26 24 6 9 15 17 5 0
2 26 24 6 9 21 20 3 0
2 26 24 6 9 21 23 5 0
2 26 24 6 9 31 29 3 0
2 26 24 6 11 17 14 3 0
2 26 24 6 11 23 20 3 0
2 26 24 12 14 8 11 5 0
2 26 24 12 14 20 23 5 0
2 26 24 12 15 9 8 3 0
2 26 24 12 15 9 11 5 0
2 26 24 12 15 21 20 3 0
2 26 24 12 15 21 23 5 0
2 26 24 12 15 31 29 3 0
2 26 24 12 17 11 8 3 0
2 26 24 12 17 23 20 3 0
2 26 24 18 20 8 11 5 0
2 26 24 18 20 14 17 5 0
2 26 24 18 21 9 8 3 0
2 26 24 18 21 9 11 5 0
2 26 24 18 21 15 14 3 0
2 26 24 18 21 15 17 5 0
2 26 24 18 21 31 29 3 0
2 26 24 18 23 11 8 3 0
2 26 24 18 23 17 14 3 0
2 26 24 25 31 9 8 3 0
2 26 24 25 31 15 14 3 0
2 26 24 25 31 21 20 3 0
2 26 28 8 6 12 17 5 0
2 26 28 8 6 18 23 5 0
2 26 28 8 9 15 17 5 0
2 26 28 8 9 21 23 5 0
2 26 28 14 12 6 11 5 0
2 26 28 14 12 18 23 5 0
2 26 28 14 15 9 11 5 0
2 26 28 14 15 21 23 5 0
2 26 28 20 18 6 11 5 0
2 26 28 20 18 12 17 5 0
2 26 28 20 21 9 11 5 0
2 26 28 20 21 15 17 5 0
2 26 30 9 6 12 14 3 0
2 26 30 9 6 12 17 5 0
2 26 30 9 6 18 20 3 0
2 26 30 9 6 18 23 5 0
2 26 30 9 6 25 29 3 0
2 26 30 9 8 14 17 5 0
2 26 30 9 8 20 23 5 0
2 26 30 9 11 17 14 3 0
2 26 30 9 11 23 20 3 0
2 26 30 15 12 6 8 3 0
2 26 30 15 12 6 11 5 0
2 26 30 15 12 18 20 3 0
2 26 30 15 12 18 23 5 0
2 26 30 15 12 25 29 3 0
2 26 30 15 14 8 11 5 0
2 26 30 15 14 20 23 5 0
2 26 30 15 17 11 8 3 0
2 26 30 15 17 23 20 3 0
2 26 30 21 18 6 8 3 0
2 26 30 21 18 6 11 5 0
2 26 30 21 18 12 14 3 0
2 26 30 21 18 12 17 5 0
2 26 30 21 18 25 29 3 0
2 26 30 21 20 8 11 5 0
2 26 30 21 20 14 17 5 0
2 26 30 21 23 11 8 3 0
2 26 30 21 23 17 14 3 0
2 26 30 31 25 6 8 3 0
2 26 30 31 25 12 14 3 0
2 26 30 31 25 18 20 3 0
2 27 11 6 12 14 28 4 0
2 27 11 6 12 15 30 4 0
2 27 11 6 12 16 28 3 0
2 27 11 6 18 20 28 4 0
2 27 11 6 18 21 30 4 0
2 27 11 6 18 22 28 3 0
2 27 11 6 24 16 14 3 0
2 27 11 6 24 22 20 3 0
2 27 11 8 14 12 24 4 0
2 27 11 8 14 15 30 4 0
2 27 11 8 20 18 24 4 0
2 27 11 8 20 21 30 4 0
2 27 11 9 15 12 24 4 0
2 27 11 9 15 14 28 4 0
2 27 11 9 15 16 28 3 0
2 27 11 9 21 18 24 4 0
2 27 11 9 21 20 28 4 0
2 27 11 9 21 22 28 3 0
2 27 11 9 30 16 14 3 0
2 27 11 9 30 22 20 3 0
2 27 11 10 24 12 14 3 0
2 27 11 10 24 18 20 3 0
2 27 11 10 30 15 14 3 0
2 27 11 10 30 21 20 3 0
2 27 17 12 6 8 28 4 0
2 27 17 12 6 9 30 4 0
2 27 17 12 6 10 28 3 0
2 27 17 12 18 20 28 4 0
2 27 17 12 18 21 30 4 0
2 27 17 12 18 22 28 3 0
2 27 17 12 24 10 8 3 0
2 27 17 12 24 22 20 3 0
2 27 17 14 8 6 24 4 0
2 27 17 14 8 9 30 4 0
2 27 17 14 20 18 24 4 0
2 27 17 14 20 21 30 4 0
2 27 17 15 9 6 24 4 0
2 27 17 15 9 8 28 4 0
2 27 17 15 9 10 28 3 0
2 27 17 15 21 18 24 4 0
2 27 17 15 21 20 28 4 0
2 27 17 15 21 22 28 3 0
2 27 17 15 30 10 8 3 0
2 27 17 15 30 22 20 3 0
2 27 17 16 24 6 8 3 0
2 27 17 16 24 18 20 3 0
2 27 17 16 30 9 8 3 0
2 27 17 16 30 21 20 3 0
2 27 23 18 6 8 28 4 0
2 27 23 18 6 9 30 4 0
2 27 23 18 6 10 28 3 0
2 27 23 18 12 14 28 4 0
2 27 23 18 12 15 30 4 0
2 27 23 18 12 16 28 3 0
2 27 23 18 24 10 8 3 0
2 27 23 18 24 16 14 3 0
2 27 23 20 8 6 24 4 0
2 27 23 20 8 9 30 4 0
2 27 23 20 14 12 24 4 0
2 27 23 20 14 15 30 4 0
2 27 23 21 9 6 24 4 0
2 27 23 21 9 8 28 4 0
2 27 23 21 9 10 28 3 0
2 27 23 21 15 12 24 4 0
2 27 23 21 15 14 28 4 0
2 27 23 21 15 16 28 3 0
2 27 23 21 30 10 8 3 0
2 27 23 21 30 16 14 3 0
2 27 23 22 24 6 8 3 0
2 27 23 22 24 12 14 3 0
2 27 23 22 30 9 8 3 0
2 27 23 22 30 15 14 3 0
2 27 25 6 8 14 16 4 0
2 27 25 6 8 20 22 4 0
2 27 25 6 9 15 14 3 0
2 27 25 6 9 15 16 4 0
2 27 25 6 9 21 20 3 0
2 27 25 6 9 21 22 4 0
2 27 25 6 9 30 28 3 0
2 27 25 6 10 16 14 3 0
2 27 25 6 10 22 20 3 0
2 27 25 12 14 8 10 4 0
2 27 25 12 14 20 22 4 0
2 27 25 12 15 9 8 3 0
2 27 25 12 15 9 10 4 0
2 27 25 12 15 21 20 3 0
2 27 25 12 15 21 22 4 0
2 27 25 12 15 30 28 3 0
2 27 25 12 16 10 8 3 0
2 27 25 12 16 22 20 3 0
2 27 25 18 20 8 10 4 0
2 27 25 18 20 14 16 4 0
2 27 25 18 21 9 8 3 0
2 27 25 18 21 9 10 4 0
2 27 25 18 21 15 14 3 0
2 27 25 18 21 15 16 4 0
2 27 25 18 21 30 28 3 0
2 27 25 18 22 10 8 3 0
2 27 25 18 22 16 14 3 0
2 27 25 24 30 9 8 3 0
2 27 25 24 30 15 14 3 0
2 27 25 24 30 21 20 3 0
2 27 29 8 6 12 16 4 0
2 27 29 8 6 18 22 4 0
2 27 29 8 9 15 16 4 0
2 27 29 8 9 21 22 4 0
2 27 29 14 12 6 10 4 0
2 27 29 14 12 18 22 4 0
2 27 29 14 15 9 10 4 0
2 27 29 14 15 21 22 4 0
2 27 29 20 18 6 10 4 0
2 27 29 20 18 12 16 4 0
2 27 29 20 21 9 10 4 0
2 27 29 20 21 15 16 4 0
2 27 31 9 6 12 14 3 0
2 27 31 9 6 12 16 4 0
2 27 31 9 6 18 20 3 0
2 27 31 9 6 18 22 4 0
2 27 31 9 6 24 28 3 0
2 27 31 9 8 14 16 4 0
2 27 31 9 8 20 22 4 0
2 27 31 9 10 16 14 3 0
2 27 31 9 10 22 20 3 0
2 27 31 15 12 6 8 3 0
2 27 31 15 12 6 10 4 0
2 27 31 15 12 18 20 3 0
2 27 31 15 12 18 22 4 0
2 27 31 15 12 24 28 3 0
2 27 31 15 14 8 10 4 0
2 27 31 15 14 20 22 4 0
2 27 31 15 16 10 8 3 0
2 27 31 15 16 22 20 3 0
2 27 31 21 18 6 8 3 0
2 27 31 21 18 6 10 4 0
2 27 31 21 18 12 14 3 0
2 27 31 21 18 12 16 4 0
2 27 31 21 18 24 28 3 0
2 27 31 21 20 8 10 4 0
2 27 31 21 20 14 16 4 0
2 27 31 21 22 10 8 3 0
2 27 31 21 22 16 14 3 0
2 27 31 30 24 6 8 3 0
2 27 31 30 24 12 14 3 0
2 27 31 30 24 18 20 3 0
3 8 6 12 13 19 22 4 0
3 8 6 12 13 19 23 5 0
3 8 6 12 15 21 22 4 0
3 8 6 12 15 21 23 5 0
3 8 6 12 16 22 23 5 0
3 8 6 12 16 26 27 5 0
3 8 6 12 16 30 31 5 0
3 8 6 12 17 23 22 4 0
3 8 6 12 17 27 26 4 0
3 8 6 12 17 31 30 4 0
3 8 6 18 19 13 16 4 0
3 8 6 18 19 13 17 5 0
3 8 6 18 21 15 16 4 0
3 8 6 18 21 15 17 5 0
3 8 6 18 22 16 17 5 0
3 8 6 18 22 26 27 5 0
3 8 6 18 22 30 31 5 0
3 8 6 18 23 17 16 4 0
3 8 6 18 23 27 26 4 0
3 8 6 18 23 31 30 4 0
3 8 6 24 16 13 27 5 0
3 8 6 24 16 15 31 5 0
3 8 6 24 22 19 27 5 0
3 8 6 24 22 21 31 5 0
3 8 6 24 26 13 17 5 0
3 8 6 24 26 19 23 5 0
3 8 6 24 30 15 17 5 0
3 8 6 24 30 21 23 5 0
3 8 6 25 17 13 26 4 0
3 8 6 25 17 15 30 4 0
3 8 6 25 23 19 26 4 0
3 8 6 25 23 21 30 4 0
3 8 6 25 27 13 16 4 0
3 8 6 25 27 19 22 4 0
3 8 6 25 31 15 16 4 0
3 8 6 25 31 21 22 4 0
3 8 7 13 12 18 22 4 0
3 8 7 13 12 18 23 5 0
3 8 7 13 15 21 22 4 0
3 8 7 13 15 21 23 5 0
3 8 7 13 16 22 23 5 0
3 8 7 13 16 24 25 5 0
3 8 7 13 16 30 31 5 0
3 8 7 13 17 23 22 4 0
3 8 7 13 17 25 24 4 0
3 8 7 13 17 31 30 4 0
3 8 7 19 18 12 16 4 0
3 8 7 19 18 12 17 5 0
3 8 7 19 21 15 16 4 0
3 8 7 19 21 15 17 5 0
3 8 7 19 22 16 17 5 0
3 8 7 19 22 24 25 5 0
3 8 7 19 22 30 31 5 0
3 8 7 19 23 17 16 4 0
3 8 7 19 23 25 24 4 0
3 8 7 19 23 31 30 4 0
3 8 7 26 16 12 25 5 0
3 8 7 26 16 15 31 5 0
3 8 7 26 22 18 25 5 0
3 8 7 26 22 21 31 5 0
3 8 7 26 24 12 17 5 0
3 8 7 26 24 18 23 5 0
3 8 7 26 30 15 17 5 0
3 8 7 26 30 21 23 5 0
3 8 7 27 17 12 24 4 0
3 8 7 27 17 15 30 4 0
3 8 7 27 23 18 24 4 0
3 8 7 27 23 21 30 4 0
3 8 7 27 25 12 16 4 0
3 8 7 27 25 18 22 4 0
3 8 7 27 31 15 16 4 0
3 8 7 27 31 21 22 4 0
3 8 9 15 12 18 22 4 0
3 8 9 15 12 18 23 5 0
3 8 9 15 13 19 22 4 0
3 8 9 15 13 19 23 5 0
3 8 9 15 16 22 23 5 0
3 8 9 15 16 24 25 5 0
3 8 9 15 16 26 27 5 0
3 8 9 15 17 23 22 4 0
3 8 9 15 17 25 24 4 0
3 8 9 15 17 27 26 4 0
3 8 9 21 18 12 16 4 0
3 8 9 21 18 12 17 5 0
3 8 9 21 19 13 16 4 0
3 8 9 21 19 13 17 5 0
3 8 9 21 22 16 17 5 0
3 8 9 21 22 24 25 5 0
3 8 9 21 22 26 27 5 0
3 8 9 21 23 17 16 4 0
3 8 9 21 23 25 24 4 0
3 8 9 21 23 27 26 4 0
3 8 9 30 16 12 25 5 0
3 8 9 30 16 13 27 5 0
3 8 9 30 22 18 25 5 0
3 8 9 30 22 19 27 5 0
3 8 9 30 24 12 17 5 0
3 8 9 30 24 18 23 5 0
3 8 9 30 26 13 17 5 0
3 8 9 30 26 19 23 5 0
3 8 9 31 17 12 24 4 0
3 8 9 31 17 13 26 4 0
3 8 9 31 23 18 24 4 0
3 8 9 31 23 19 26 4 0
3 8 9 31 25 12 16 4 0
3 8 9 31 25 18 22 4 0
3 8 9 31 27 13 16 4 0
3 8 9 31 27 19 22 4 0
3 8 10 16 12 18 23 5 0
3 8 10 16 13 19 23 5 0
3 8 10 16 15 21 23 5 0
3 8 10 22 18 12 17 5 0
3 8 10 22 19 13 17 5 0
3 8 10 22 21 15 17 5 0
3 8 10 24 12 13 27 5 0
3 8 10 24 12 15 31 5 0
3 8 10 24 18 19 27 5 0
3 8 10 24 18 21 31 5 0
3 8 10 26 13 12 25 5 0
3 8 10 26 13 15 31 5 0
3 8 10 26 19 18 25 5 0
3 8 10 26 19 21 31 5 0
3 8 10 30 15 12 25 5 0
3 8 10 30 15 13 27 5 0
3 8 10 30 21 18 25 5 0
3 8 10 30 21 19 27 5 0
3 8 11 17 12 18 22 4 0
3 8 11 17 13 19 22 4 0
3 8 11 17 15 21 22 4 0
3 8 11 23 18 12 16 4 0
3 8 11 23 19 13 16 4 0
3 8 11 23 21 15 16 4 0
3 8 11 25 12 13 26 4 0
3 8 11 25 12 15 30 4 0
3 8 11 25 18 19 26 4 0
3 8 11 25 18 21 30 4 0
3 8 11 27 13 12 24 4 0
3 8 11 27 13 15 30 4 0
3 8 11 27 19 18 24 4 0
3 8 11 27 19 21 30 4 0
3 8 11 31 15 12 24 4 0
3 8 11 31 15 13 26 4 0
3 8 11 31 21 18 24 4 0
3 8 11 31 21 19 26 4 0
3 14 12 6 7 19 22 4 0
3 14 12 6 7 19 23 5 0
3 14 12 6 9 21 22 4 0
3 14 12 6 9 21 23 5 0
3 14 12 6 10 22 23 5 0
3 14 12 6 10 26 27 5 0
3 14 12 6 10 30 31 5 0
3 14 12 6 11 23 22 4 0
3 14 12 6 11 27 26 4 0
3 14 12 6 11 31 30 4 0
3 14 12 18 19 7 10 4 0
3 14 12 18 19 7 11 5 0
3 14 12 18 21 9 10 4 0
3 14 12 18 21 9 11 5 0
3 14 12 18 22 10 11 5 0
3 14 12 18 22 26 27 5 0
3 14 12 18 22 30 31 5 0
3 14 12 18 23 11 10 4 0
3 14 12 18 23 27 26 4 0
3 14 12 18 23 31 30 4 0
3 14 12 24 10 7 27 5 0
3 14 12 24 10 9 31 5 0
3 14 12 24 22 19 27 5 0
3 14 12 24 22 21 31 5 0
3 14 12 24 26 7 11 5 0
3 14 12 24 26 19 23 5 0
3 14 12 24 30 9 11 5 0
3 14 12 24 30 21 23 5 0
3 14 12 25 11 7 26 4 0
3 14 12 25 11 9 30 4 0
3 14 12 25 23 19 26 4 0
3 14 12 25 23 21 30 4 0
3 14 12 25 27 7 10 4 0
3 14 12 25 27 19 22 4 0
3 14 12 25 31 9 10 4 0
3 14 12 25 31 21 22 4 0
3 14 13 7 6 18 22 4 0
3 14 13 7 6 18 23 5 0
3 14 13 7 9 21 22 4 0
3 14 13 7 9 21 23 5 0
3 14 13 7 10 22 23 5 0
3 14 13 7 10 24 25 5 0
3 14 13 7 10 30 31 5 0
3 14 13 7 11 23 22 4 0
3 14 13 7 11 25 24 4 0
3 14 13 7 11 31 30 4 0
3 14 13 19 18 6 10 4 0
3 14 13 19 18 6 11 5 0
3 14 13 19 21 9 10 4 0
3 14 13 19 21 9 11 5 0
3 14 13 19 22 10 11 5 0
3 14 13 19 22 24 25 5 0
3 14 13 19 22 30 31 5 0
3 14 13 19 23 11 10 4 0
3 14 13 19 23 25 24 4 0
3 14 13 19 23 31 30 4 0
3 14 13 26 10 6 25 5 0
3 14 13 26 10 9 31 5 0
3 14 13 26 22 18 25 5 0
3 14 13 26 22 21 31 5 0
3 14 13 26 24 6 11 5 0
3 14 13 26 24 18 23 5 0
3 14 13 26 30 9 11 5 0
3 14 13 26 30 21 23 5 0
3 14 13 27 11 6 24 4 0
3 14 13 27 11 9 30 4 0
3 14 13 27 23 18 24 4 0
3 14 13 27 23 21 30 4 0
3 14 13 27 25 6 10 4 0
3 14 13 27 25 18 22 4 0
3 14 13 27 31 9 10 4 0
3 14 13 27 31 21 22 4 0
3 14 15 9 6 18 22 4 0
3 14 15 9 6 18 23 5 0
3 14 15 9 7 19 22 4 0
3 14 15 9 7 19 23 5 0
3 14 15 9 10 22 23 5 0
3 14 15 9 10 24 25 5 0
3 14 15 9 10 26 27 5 0
3 14 15 9 11 23 22 4 0
3 14 15 9 11 25 24 4 0
3 14 15 9 11 27 26 4 0
3 14 15 21 18 6 10 4 0
3 14 15 21 18 6 11 5 0
3 14 15 21 19 7 10 4 0
3 14 15 21 19 7 11 5 0
3 14 15 21 22 10 11 5 0
3 14 15 21 22 24 25 5 0
3 14 15 21 22 26 27 5 0
3 14 15 21 23 11 10 4 0
3 14 15 21 23 25 24 4 0
3 14 15 21 23 27 26 4 0
3 14 15 30 10 6 25 5 0
3 14 15 30 10 7 27 5 0
3 14 15 30 22 18 25 5 0
3 14 15 30 22 19 27 5 0
3 14 15 30 24 6 11 5 0
3 14 15 30 24 18 23 5 0
3 14 15 30 26 7 11 5 0
3 14 15 30 26 19 23 5 0
3 14 15 31 11 6 24 4 0
3 14 15 31 11 7 26 4 0
3 14 15 31 23 18 24 4 0
3 14 15 31 23 19 26 4 0
3 14 15 31 25 6 10 4 0
3 14 15 31 25 18 22 4 0
3 14 15 31 27 7 10 4 0
3 14 15 31 27 19 22 4 0
3 14 16 10 6 18 23 5 0
3 14 16 10 7 19 23 5 0
3 14 16 10 9 21 23 5 0
3 14 16 22 18 6 11 5 0
3 14 16 22 19 7 11 5 0
3 14 16 22 21 9 11 5 0
3 14 16 24 6 7 27 5 0
3 14 16 24 6 9 31 5 0
3 14 16 24 18 19 27 5 0
3 14 16 24 18 21 31 5 0
3 14 16 26 7 6 25 5 0
3 14 16 26 7 9 31 5 0
3 14 16 26 19 18 25 5 0
3 14 16 26 19 21 31 5 0
3 14 16 30 9 6 25 5 0
3 14 16 30 9 7 27 5 0
3 14 16 30 21 18 25 5 0
3 14 16 30 21 19 27 5 0
3 14 17 11 6 18 22 4 0
3 14 17 11 7 19 22 4 0
3 14 17 11 9 21 22 4 0
3 14 17 23 18 6 10 4 0
3 14 17 23 19 7 10 4 0
3 14 17 23 21 9 10 4 0
3 14 17 25 6 7 26 4 0
3 14 17 25 6 9 30 4 0
3 14 17 25 18 19 26 4 0
3 14 17 25 18 21 30 4 0
3 14 17 27 7 6 24 4 0
3 14 17 27 7 9 30 4 0
3 14 17 27 19 18 24 4 0
3 14 17 27 19 21 30 4 0
3 14 17 31 9 6 24 4 0
3 14 17 31 9 7 26 4 0
3 14 17 31 21 18 24 4 0
3 14 17 31 21 19 26 4 0
3 20 18 6 7 13 16 4 0
3 20 18 6 7 13 17 5 0
3 20 18 6 9 15 16 4 0
3 20 18 6 9 15 17 5 0
3 20 18 6 10 16 17 5 0
3 20 18 6 10 26 27 5 0
3 20 18 6 10 30 31 5 0
3 20 18 6 11 17 16 4 0
3 20 18 6 11 27 26 4 0
3 20 18 6 11 31 30 4 0
3 20 18 12 13 7 10 4 0
3 20 18 12 13 7 11 5 0
3 20 18 12 15 9 10 4 0
3 20 18 12 15 9 11 5 0
3 20 18 12 16 10 11 5 0
3 20 18 12 16 26 27 5 0
3 20 18 12 16 30 31 5 0
3 20 18 12 17 11 10 4 0
3 20 18 12 17 27 26 4 0
3 20 18 12 17 31 30 4 0
3 20 18 24 10 7 27 5 0
3 20 18 24 10 9 31 5 0
3 20 18 24 16 13 27 5 0
3 20 18 24 16 15 31 5 0
3 20 18 24 26 7 11 5 0
3 20 18 24 26 13 17 5 0
3 20 18 24 30 9 11 5 0
3 20 18 24 30 15 17 5 0
3 20 18 25 11 7 26 4 0
3 20 18 25 11 9 30 4 0
3 20 18 25 17 13 26 4 0
3 20 18 25 17 15 30 4 0
3 20 18 25 27 7 10 4 0
3 20 18 25 27 13 16 4 0
3 20 18 25 31 9 10 4 0
3 20 18 25 31 15 16 4 0
3 20 19 7 6 12 16 4 0
3 20 19 7 6 12 17 5 0
3 20 19 7 9 15 16 4 0
3 20 19 7 9 15 17 5 0
3 20 19 7 10 16 17 5 0
3 20 19 7 10 24 25 5 0
3 20 19 7 10 30 31 5 0
3 20 19 7 11 17 16 4 0
3 20 19 7 11 25 24 4 0
3 20 19 7 11 31 30 4 0
3 20 19 13 12 6 10 4 0
3 20 19 13 12 6 11 5 0
3 20 19 13 15 9 10 4 0
3 20 19 13 15 9 11 5 0
3 20 19 13 16 10 11 5 0
3 20 19 13 16 24 25 5 0
3 20 19 13 16 30 31 5 0
3 20 19 13 17 11 10 4 0
3 20 19 13 17 25 24 4 0
3 20 19 13 17 31 30 4 0
3 20 19 26 10 6 25 5 0
3 20 19 26 10 9 31 5 0
3 20 19 26 16 12 25 5 0
3 20 19 26 16 15 31 5 0
3 20 19 26 24 6 11 5 0
3 20 19 26 24 12 17 5 0
3 20 19 26 30 9 11 5 0
3 20 19 26 30 15 17 5 0
3 20 19 27 11 6 24 4 0
3 20 19 27 11 9 30 4 0
3 20 19 27 17 12 24 4 0
3 20 19 27 17 15 30 4 0
3 20 19 27 25 6 10 4 0
3 20 19 27 25 12 16 4 0
3 20 19 27 31 9 10 4 0
3 20 19 27 31 15 16 4 0
3 20 21 9 6 12 16 4 0
3 20 21 9 6 12 17 5 0
3 20 21 9 7 13 16 4 0
3 20 21 9 7 13 17 5 0
3 20 21 9 10 16 17 5 0
3 20 21 9 10 24 25 5 0
3 20 21 9 10 26 27 5 0
3 20 21 9 11 17 16 4 0
3 20 21 9 11 25 24 4 0
3 20 21 9 11 27 26 4 0
3 20 21 15 12 6 10 4 0
3 20 21 15 12 6 11 5 0
3 20 21 15 13 7 10 4 0
3 20 21 15 13 7 11 5 0
3 20 21 15 16 10 11 5 0
3 20 21 15 16 24 25 5 0
3 20 21 15 16 26 27 5 0
3 20 21 15 17 11 10 4 0
3 20 21 15 17 25 24 4 0
3 20 21 15 17 27 26 4 0
3 20 21 30 10 6 25 5 0
3 20 21 30 10 7 27 5 0
3 20 21 30 16 12 25 5 0
3 20 21 30 16 13 27 5 0
3 20 21 30 24 6 11 5 0
3 20 21 30 24 12 17 5 0
3 20 21 30 26 7 11 5 0
3 20 21 30 26 13 17 5 0
3 20 21 31 11 6 24 4 0
3 20 21 31 11 7 26 4 0
3 20 21 31 17 12 24 4 0
3 20 21 31 17 13 26 4 0
3 20 21 31 25 6 10 4 0
3 20 21 31 25 12 16 4 0
3 20 21 31 27 7 10 4 0
3 20 21 31 27 13 16 4 0
3 20 22 10 6 12 17 5 0
3 20 22 10 7 13 17 5 0
3 20 22 10 9 15 17 5 0
3 20 22 16 12 6 11 5 0
3 20 22 16 13 7 11 5 0
3 20 22 16 15 9 11 5 0
3 20 22 24 6 7 27 5 0
3 20 22 24 6 9 31 5 0
3 20 22 24 12 13 27 5 0
3 20 22 24 12 15 31 5 0
3 20 22 26 7 6 25 5 0
3 20 22 26 7 9 31 5 0
3 20 22 26 13 12 25 5 0
3 20 22 26 13 15 31 5 0
3 20 22 30 9 6 25 5 0
3 20 22 30 9 7 27 5 0
3 20 22 30 15 12 25 5 0
3 20 22 30 15 13 27 5 0
3 20 23 11 6 12 16 4 0
3 20 23 11 7 13 16 4 0
3 20 23 11 9 15 16 4 0
3 20 23 17 12 6 10 4 0
3 20 23 17 13 7 10 4 0
3 20 23 17 15 9 10 4 0
3 20 23 25 6 7 26 4 0
3 20 23 25 6 9 30 4 0
3 20 23 25 12 13 26 4 0
3 20 23 25 12 15 30 4 0
3 20 23 27 7 6 24 4 0
3 20 23 27 7 9 30 4 0
3 20 23 27 13 12 24 4 0
3 20 23 27 13 15 30 4 0
3 20 23 31 9 6 24 4 0
3 20 23 31 9 7 26 4 0
3 20 23 31 15 12 24 4 0
3 20 23 31 15 13 26 4 0
3 28 10 6 12 13 27 5 0
3 28 10 6 12 15 31 5 0
3 28 10 6 18 19 27 5 0
3 28 10 6 18 21 31 5 0
3 28 10 7 13 12 25 5 0
3 28 10 7 13 15 31 5 0
3 28 10 7 19 18 25 5 0
3 28 10 7 19 21 31 5 0
3 28 10 9 15 12 25 5 0
3 28 10 9 15 13 27 5 0
3 28 10 9 21 18 25 5 0
3 28 10 9 21 19 27 5 0
3 28 16 12 6 7 27 5 0
3 28 16 12 6 9 31 5 0
3 28 16 12 18 19 27 5 0
3 28 16 12 18 21 31 5 0
3 28 16 13 7 6 25 5 0
3 28 16 13 7 9 31 5 0
3 28 16 13 19 18 25 5 0
3 28 16 13 19 21 31 5 0
3 28 16 15 9 6 25 5 0
3 28 16 15 9 7 27 5 0
3 28 16 15 21 18 25 5 0
3 28 16 15 21 19 27 5 0
3 28 22 18 6 7 27 5 0
3 28 22 18 6 9 31 5 0
3 28 22 18 12 13 27 5 0
3 28 22 18 12 15 31 5 0
3 28 22 19 7 6 25 5 0
3 28 22 19 7 9 31 5 0
3 28 22 19 13 12 25 5 0
3 28 22 19 13 15 31 5 0
3 28 22 21 9 6 25 5 0
3 28 22 21 9 7 27 5 0
3 28 22 21 15 12 25 5 0
3 28 22 21 15 13 27 5 0
3 28 24 6 7 13 17 5 0
3 28 24 6 7 19 23 5 0
3 28 24 6 9 15 17 5 0
3 28 24 6 9 21 23 5 0
3 28 24 12 13 7 11 5 0
3 28 24 12 13 19 23 5 0
3 28 24 12 15 9 11 5 0
3 28 24 12 15 21 23 5 0
3 28 24 18 19 7 11 5 0
3 28 24 18 19 13 17 5 0
3 28 24 18 21 9 11 5 0
3 28 24 18 21 15 17 5 0
3 28 26 7 6 12 17 5 0
3 28 26 7 6 18 23 5 0
3 28 26 7 9 15 17 5 0
3 28 26 7 9 21 23 5 0
3 28 26 13 12 6 11 5 0
3 28 26 13 12 18 23 5 0
3 28 26 13 15 9 11 5 0
3 28 26 13 15 21 23 5 0
3 28 26 19 18 6 11 5 0
3 28 26 19 18 12 17 5 0
3 28 26 19 21 9 11 5 0
3 28 26 19 21 15 17 5 0
3 28 30 9 6 12 17 5 0
3 28 30 9 6 18 23 5 0
3 28 30 9 7 13 17 5 0
3 28 30 9 7 19 23 5 0
3 28 30 15 12 6 11 5 0
3 28 30 15 12 18 23 5 0
3 28 30 15 13 7 11 5 0
3 28 30 15 13 19 23 5 0
3 28 30 21 18 6 11 5 0
3 28 30 21 18 12 17 5 0
3 28 30 21 19 7 11 5 0
3 28 30 21 19 13 17 5 0
3 29 11 6 12 13 26 4 0
3 29 11 6 12 15 30 4 0
3 29 11 6 18 19 26 4 0
3 29 11 6 18 21 30 4 0
3 29 11 7 13 12 24 4 0
3 29 11 7 13 15 30 4 0
3 29 11 7 19 18 24 4 0
3 29 11 7 19 21 30 4 0
3 29 11 9 15 12 24 4 0
3 29 11 9 15 13 26 4 0
3 29 11 9 21 18 24 4 0
3 29 11 9 21 19 26 4 0
3 29 17 12 6 7 26 4 0
3 29 17 12 6 9 30 4 0
3 29 17 12 18 19 26 4 0
3 29 17 12 18 21 30 4 0
3 29 17 13 7 6 24 4 0
3 29 17 13 7 9 30 4 0
3 29 17 13 19 18 24 4 0
3 29 17 13 19 21 30 4 0
3 29 17 15 9 6 24 4 0
3 29 17 15 9 7 26 4 0
3 29 17 15 21 18 24 4 0
3 29 17 15 21 19 26 4 0
3 29 23 18 6 7 26 4 0
3 29 23 18 6 9 30 4 0
3 29 23 18 12 13 26 4 0
3 29 23 18 12 15 30 4 0
3 29 23 19 7 6 24 4 0
3 29 23 19 7 9 30 4 0
3 29 23 19 13 12 24 4 0
3 29 23 19 13 15 30 4 0
3 29 23 21 9 6 24 4 0
3 29 23 21 9 7 26 4 0
3 29 23 21 15 12 24 4 0
3 29 23 21 15 13 26 4 0
3 29 25 6 7 13 16 4 0
3 29 25 6 7 19 22 4 0
3 29 25 6 9 15 16 4 0
3 29 25 6 9 21 22 4 0
3 29 25 12 13 7 10 4 0
3 29 25 12 13 19 22 4 0
3 29 25 12 15 9 10 4 0
3 29 25 12 15 21 22 4 0
3 29 25 18 19 7 10 4 0
3 29 25 18 19 13 16 4 0
3 29 25 18 21 9 10 4 0
3 29 25 18 21 15 16 4 0
3 29 27 7 6 12 16 4 0
3 29 27 7 6 18 22 4 0
3 29 27 7 9 15 16 4 0
3 29 27 7 9 21 22 4 0
3 29 27 13 12 6 10 4 0
3 29 27 13 12 18 22 4 0
3 29 27 13 15 9 10 4 0
3 29 27 13 15 21 22 4 0
3 29 27 19 18 6 10 4 0
3 29 27 19 18 12 16 4 0
3 29 27 19 21 9 10 4 0
3 29 27 19 21 15 16 4 0
3 29 31 9 6 12 16 4 0
3 29 31 9 6 18 22 4 0
3 29 31 9 7 13 16 4 0
3 29 31 9 7 19 22 4 0
3 29 31 15 12 6 10 4 0
3 29 31 15 12 18 22 4 0
3 29 31 15 13 7 10 4 0
3 29 31 15 13 19 22 4 0
3 29 31 21 18 6 10 4 0
3 29 31 21 18 12 16 4 0
3 29 31 21 19 7 10 4 0
3 29 31 21 19 13 16 4 0
4 10 6 12 13 19 23 5 0
4 10 6 12 14 20 23 5 0
4 10 6 12 15 21 23 5 0
4 10 6 18 19 13 17 5 0
4 10 6 18 20 14 17 5 0
4 10 6 18 21 15 17 5 0
4 10 7 13 12 18 23 5 0
4 10 7 13 14 20 23 5 0
4 10 7 13 15 21 23 5 0
4 10 7 19 18 12 17 5 0
4 10 7 19 20 14 17 5 0
4 10 7 19 21 15 17 5 0
4 10 8 14 12 18 23 5 0
4 10 8 14 13 19 23 5 0
4 10 8 14 15 21 23 5 0
4 10 8 20 18 12 17 5 0
4 10 8 20 19 13 17 5 0
4 10 8 20 21 15 17 5 0
4 10 9 15 12 18 23 5 0
4 10 9 15 13 19 23 5 0
4 10 9 15 14 20 23 5 0
4 10 9 21 18 12 17 5 0
4 10 9 21 19 13 17 5 0
4 10 9 21 20 14 17 5 0
4 16 12 6 7 19 23 5 0
4 16 12 6 8 20 23 5 0
4 16 12 6 9 21 23 5 0
4 16 12 18 19 7 11 5 0
4 16 12 18 20 8 11 5 0
4 16 12 18 21 9 11 5 0
4 16 13 7 6 18 23 5 0
4 16 13 7 8 20 23 5 0
4 16 13 7 9 21 23 5 0
4 16 13 19 18 6 11 5 0
4 16 13 19 20 8 11 5 0
4 16 13 19 21 9 11 5 0
4 16 14 8 6 18 23 5 0
4 16 14 8 7 19 23 5 0
4 16 14 8 9 21 23 5 0
4 16 14 20 18 6 11 5 0
4 16 14 20 19 7 11 5 0
4 16 14 20 21 9 11 5 0
4 16 15 9 6 18 23 5 0
4 16 15 9 7 19 23 5 0
4 16 15 9 8 20 23 5 0
4 16 15 21 18 6 11 5 0
4 16 15 21 19 7 11 5 0
4 16 15 21 20 8 11 5 0
4 22 18 6 7 13 17 5 0
4 22 18 6 8 14 17 5 0
4 22 18 6 9 15 17 5 0
4 22 18 12 13 7 11 5 0
4 22 18 12 14 8 11 5 0
4 22 18 12 15 9 11 5 0
4 22 19 7 6 12 17 5 0
4 22 19 7 8 14 17 5 0
4 22 19 7 9 15 17 5 0
4 22 19 13 12 6 11 5 0
4 22 19 13 14 8 11 5 0
4 22 19 13 15 9 11 5 0
4 22 20 8 6 12 17 5 0
4 22 20 8 7 13 17 5 0
4 22 20 8 9 15 17 5 0
4 22 20 14 12 6 11 5 0
4 22 20 14 13 7 11 5 0
4 22 20 14 15 9 11 5 0
4 22 21 9 6 12 17 5 0
4 22 21 9 7 13 17 5 0
4 22 21 9 8 14 17 5 0
4 22 21 15 12 6 11 5 0
4 22 21 15 13 7 11 5 0
4 22 21 15 14 8 11 5 0
4 24 6 7 13 14 29 5 0
4 24 6 7 13 15 31 5 0
4 24 6 7 19 20 29 5 0
4 24 6 7 19 21 31 5 0
4 24 6 8 14 13 27 5 0
4 24 6 8 14 15 31 5 0
4 24 6 8 20 19 27 5 0
4 24 6 8 20 21 31 5 0
4 24 6 9 15 13 27 5 0
4 24 6 9 15 14 29 5 0
4 24 6 9 21 19 27 5 0
4 24 6 9 21 20 29 5 0
4 24 12 13 7 8 29 5 0
4 24 12 13 7 9 31 5 0
4 24 12 13 19 20 29 5 0
4 24 12 13 19 21 31 5 0
4 24 12 14 8 7 27 5 0
4 24 12 14 8 9 31 5 0
4 24 12 14 20 19 27 5 0
4 24 12 14 20 21 31 5 0
4 24 12 15 9 7 27 5 0
4 24 12 15 9 8 29 5 0
4 24 12 15 21 19 27 5 0
4 24 12 15 21 20 29 5 0
4 24 18 19 7 8 29 5 0
4 24 18 19 7 9 31 5 0
4 24 18 19 13 14 29 5 0
4 24 18 19 13 15 31 5 0
4 24 18 20 8 7 27 5 0
4 24 18 20 8 9 31 5 0
4 24 18 20 14 13 27 5 0
4 24 18 20 14 15 31 5 0
4 24 18 21 9 7 27 5 0
4 24 18 21 9 8 29 5 0
4 24 18 21 15 13 27 5 0
4 24 18 21 15 14 29 5 0
4 26 7 6 12 14 29 5 0
4 26 7 6 12 15 31 5 0
4 26 7 6 18 20 29 5 0
4 26 7 6 18 21 31 5 0
4 26 7 8 14 12 25 5 0
4 26 7 8 14 15 31 5 0
4 26 7 8 20 18 25 5 0
4 26 7 8 20 21 31 5 0
4 26 7 9 15 12 25 5 0
4 26 7 9 15 14 29 5 0
4 26 7 9 21 18 25 5 0
4 26 7 9 21 20 29 5 0
4 26 13 12 6 8 29 5 0
4 26 13 12 6 9 31 5 0
4 26 13 12 18 20 29 5 0
4 26 13 12 18 21 31 5 0
4 26 13 14 8 6 25 5 0
4 26 13 14 8 9 31 5 0
4 26 13 14 20 18 25 5 0
4 26 13 14 20 21 31 5 0
4 26 13 15 9 6 25 5 0
4 26 13 15 9 8 29 5 0
4 26 13 15 21 18 25 5 0
4 26 13 15 21 20 29 5 0
4 26 19 18 6 8 29 5 0
4 26 19 18 6 9 31 5 0
4 26 19 18 12 14 29 5 0
4 26 19 18 12 15 31 5 0
4 26 19 20 8 6 25 5 0
4 26 19 20 8 9 31 5 0
4 26 19 20 14 12 25 5 0
4 26 19 20 14 15 31 5 0
4 26 19 21 9 6 25 5 0
4 26 19 21 9 8 29 5 0
4 26 19 21 15 12 25 5 0
4 26 19 21 15 14 29 5 0
4 28 8 6 12 13 27 5 0
4 28 8 6 12 15 31 5 0
4 28 8 6 18 19 27 5 0
4 28 8 6 18 21 31 5 0
4 28 8 7 13 12 25 5 0
4 28 8 7 13 15 31 5 0
4 28 8 7 19 18 25 5 0
4 28 8 7 19 21 31 5 0
4 28 8 9 15 12 25 5 0
4 28 8 9 15 13 27 5 0
4 28 8 9 21 18 25 5 0
4 28 8 9 21 19 27 5 0
4 28 14 12 6 7 27 5 0
4 28 14 12 6 9 31 5 0
4 28 14 12 18 19 27 5 0
4 28 14 12 18 21 31 5 0
4 28 14 13 7 6 25 5 0
4 28 14 13 7 9 31 5 0
4 28 14 13 19 18 25 5 0
4 28 14 13 19 21 31 5 0
4 28 14 15 9 6 25 5 0
4 28 14 15 9 7 27 5 0
4 28 14 15 21 18 25 5 0
4 28 14 15 21 19 27 5 0
4 28 20 18 6 7 27 5 0
4 28 20 18 6 9 31 5 0
4 28 20 18 12 13 27 5 0
4 28 20 18 12 15 31 5 0
4 28 20 19 7 6 25 5 0
4 28 20 19 7 9 31 5 0
4 28 20 19 13 12 25 5 0
4 28 20 19 13 15 31 5 0
4 28 20 21 9 6 25 5 0
4 28 20 21 9 7 27 5 0
4 28 20 21 15 12 25 5 0
4 28 20 21 15 13 27 5 0
4 30 9 6 12 13 27 5 0
4 30 9 6 12 14 29 5 0
4 30 9 6 18 19 27 5 0
4 30 9 6 18 20 29 5 0
4 30 9 7 13 12 25 5 0
4 30 9 7 13 14 29 5 0
4 30 9 7 19 18 25 5 0
4 30 9 7 19 20 29 5 0
4 30 9 8 14 12 25 5 0
4 30 9 8 14 13 27 5 0
4 30 9 8 20 18 25 5 0
4 30 9 8 20 19 27 5 0
4 30 15 12 6 7 27 5 0
4 30 15 12 6 8 29 5 0
4 30 15 12 18 19 27 5 0
4 30 15 12 18 20 29 5 0
4 30 15 13 7 6 25 5 0
4 30 15 13 7 8 29 5 0
4 30 15 13 19 18 25 5 0
4 30 15 13 19 20 29 5 0
4 30 15 14 8 6 25 5 0
4 30 15 14 8 7 27 5 0
4 30 15 14 20 18 25 5 0
4 30 15 14 20 19 27 5 0
4 30 21 18 6 7 27 5 0
4 30 21 18 6 8 29 5 0
4 30 21 18 12 13 27 5 0
4 30 21 18 12 14 29 5 0
4 30 21 19 7 6 25 5 0
4 30 21 19 7 8 29 5 0
4 30 21 19 13 12 25 5 0
4 30 21 19 13 14 29 5 0
4 30 21 20 8 6 25 5 0
4 30 21 20 8 7 27 5 0
4 30 21 20 14 12 25 5 0
4 30 21 20 14 13 27 5 0
6 12 13 19 20 28 30 9 0
6 12 13 19 20 29 31 9 0
6 12 13 19 21 30 28 8 0
6 12 13 19 21 31 29 8 0
6 12 13 19 22 28 29 11 0
6 12 13 19 22 30 31 11 0
6 12 13 19 23 29 28 10 0
6 12 13 19 23 31 30 10 0
6 12 13 26 22 20 29 11 0
6 12 13 26 22 21 31 11 0
6 12 13 26 22 23 29 8 0
6 12 13 26 22 23 31 9 0
6 12 13 26 28 20 21 9 0
6 12 13 26 28 20 23 11 0
6 12 13 26 28 29 31 9 0
6 12 13 26 30 21 20 8 0
6 12 13 26 30 21 23 11 0
6 12 13 26 30 31 29 8 0
6 12 13 27 23 20 28 10 0
6 12 13 27 23 21 30 10 0
6 12 13 27 23 22 28 8 0
6 12 13 27 23 22 30 9 0
6 12 13 27 29 20 21 9 0
6 12 13 27 29 20 22 10 0
6 12 13 27 29 28 30 9 0
6 12 13 27 31 21 20 8 0
6 12 13 27 31 21 22 10 0
6 12 13 27 31 30 28 8 0
6 12 14 20 19 26 30 9 0
6 12 14 20 19 27 31 9 0
6 12 14 20 21 30 26 7 0
6 12 14 20 21 31 27 7 0
6 12 14 20 22 26 27 11 0
6 12 14 20 22 30 31 11 0
6 12 14 20 23 27 26 10 0
6 12 14 20 23 31 30 10 0
6 12 14 28 22 19 27 11 0
6 12 14 28 22 21 31 11 0
6 12 14 28 22 23 27 7 0
6 12 14 28 22 23 31 9 0
6 12 14 28 26 19 21 9 0
6 12 14 28 26 19 23 11 0
6 12 14 28 26 27 31 9 0
6 12 14 28 30 21 19 7 0
6 12 14 28 30 21 23 11 0
6 12 14 28 30 31 27 7 0
6 12 14 29 23 19 26 10 0
6 12 14 29 23 21 30 10 0
6 12 14 29 23 22 26 7 0
6 12 14 29 23 22 30 9 0
6 12 14 29 27 19 21 9 0
6 12 14 29 27 19 22 10 0
6 12 14 29 27 26 30 9 0
6 12 14 29 31 21 19 7 0
6 12 14 29 31 21 22 10 0
6 12 14 29 31 30 26 7 0
6 12 15 21 19 26 28 8 0
6 12 15 21 19 27 29 8 0
6 12 15 21 20 28 26 7 0
6 12 15 21 20 29 27 7 0
6 12 15 21 22 26 27 11 0
6 12 15 21 22 28 29 11 0
6 12 15 21 23 27 26 10 0
6 12 15 21 23 29 28 10 0
6 12 15 30 22 19 27 11 0
6 12 15 30 22 20 29 11 0
6 12 15 30 22 23 27 7 0
6 12 15 30 22 23 29 8 0
6 12 15 30 26 19 20 8 0
6 12 15 30 26 19 23 11 0
6 12 15 30 26 27 29 8 0
6 12 15 30 28 20 19 7 0
6 12 15 30 28 20 23 11 0
6 12 15 30 28 29 27 7 0
6 12 15 31 23 19 26 10 0
6 12 15 31 23 20 28 10 0
6 12 15 31 23 22 26 7 0
6 12 15 31 23 22 28 8 0
6 12 15 31 27 19 20 8 0
6 12 15 31 27 19 22 10 0
6 12 15 31 27 26 28 8 0
6 12 15 31 29 20 19 7 0
6 12 15 31 29 20 22 10 0
6 12 15 31 29 28 26 7 0
6 12 16 22 19 27 29 8 0
6 12 16 22 19 27 31 9 0
6 12 16 22 20 29 27 7 0
6 12 16 22 20 29 31 9 0
6 12 16 22 21 31 27 7 0
6 12 16 22 21 31 29 8 0
6 12 16 26 19 20 29 11 0
6 12 16 26 19 21 31 11 0
6 12 16 26 19 23 29 8 0
6 12 16 26 19 23 31 9 0
6 12 16 26 27 23 20 8 0
6 12 16 26 27 23 21 9 0
6 12 16 28 20 19 27 11 0
6 12 16 28 20 21 31 11 0
6 12 16 28 20 23 27 7 0
6 12 16 28 20 23 31 9 0
6 12 16 28 29 23 19 7 0
6 12 16 28 29 23 21 9 0
6 12 16 30 21 19 27 11 0
6 12 16 30 21 20 29 11 0
6 12 16 30 21 23 27 7 0
6 12 16 30 21 23 29 8 0
6 12 16 30 31 23 19 7 0
6 12 16 30 31 23 20 8 0
6 12 17 23 19 26 28 8 0
6 12 17 23 19 26 30 9 0
6 12 17 23 20 28 26 7 0
6 12 17 23 20 28 30 9 0
6 12 17 23 21 30 26 7 0
6 12 17 23 21 30 28 8 0
6 12 17 27 19 20 28 10 0
6 12 17 27 19 21 30 10 0
6 12 17 27 19 22 28 8 0
6 12 17 27 19 22 30 9 0
6 12 17 27 26 22 20 8 0
6 12 17 27 26 22 21 9 0
6 12 17 29 20 19 26 10 0
6 12 17 29 20 21 30 10 0
6 12 17 29 20 22 26 7 0
6 12 17 29 20 22 30 9 0
6 12 17 29 28 22 19 7 0
6 12 17 29 28 22 21 9 0
6 12 17 31 21 19 26 10 0
6 12 17 31 21 20 28 10 0
6 12 17 31 21 22 26 7 0
6 12 17 31 21 22 28 8 0
6 12 17 31 30 22 19 7 0
6 12 17 31 30 22 20 8 0
6 18 19 13 14 28 30 9 0
6 18 19 13 14 29 31 9 0
6 18 19 13 15 30 28 8 0
6 18 19 13 15 31 29 8 0
6 18 19 13 16 28 29 11 0
6 18 19 13 16 30 31 11 0
6 18 19 13 17 29 28 10 0
6 18 19 13 17 31 30 10 0
6 18 19 26 16 14 29 11 0
6 18 19 26 16 15 31 11 0
6 18 19 26 16 17 29 8 0
6 18 19 26 16 17 31 9 0
6 18 19 26 28 14 15 9 0
6 18 19 26 28 14 17 11 0
6 18 19 26 28 29 31 9 0
6 18 19 26 30 15 14 8 0
6 18 19 26 30 15 17 11 0
6 18 19 26 30 31 29 8 0
6 18 19 27 17 14 28 10 0
6 18 19 27 17 15 30 10 0
6 18 19 27 17 16 28 8 0
6 18 19 27 17 16 30 9 0
6 18 19 27 29 14 15 9 0
6 18 19 27 29 14 16 10 0
6 18 19 27 29 28 30 9 0
6 18 19 27 31 15 14 8 0
6 18 19 27 31 15 16 10 0
6 18 19 27 31 30 28 8 0
6 18 20 14 13 26 30 9 0
6 18 20 14 13 27 31 9 0
6 18 20 14 15 30 26 7 0
6 18 20 14 15 31 27 7 0
6 18 20 14 16 26 27 11 0
6 18 20 14 16 30 31 11 0
6 18 20 14 17 27 26 10 0
6 18 20 14 17 31 30 10 0
6 18 20 28 16 13 27 11 0
6 18 20 28 16 15 31 11 0
6 18 20 28 16 17 27 7 0
6 18 20 28 16 17 31 9 0
6 18 20 28 26 13 15 9 0
6 18 20 28 26 13 17 11 0
6 18 20 28 26 27 31 9 0
6 18 20 28 30 15 13 7 0
6 18 20 28 30 15 17 11 0
6 18 20 28 30 31 27 7 0
6 18 20 29 17 13 26 10 0
6 18 20 29 17 15 30 10 0
6 18 20 29 17 16 26 7 0
6 18 20 29 17 16 30 9 0
6 18 20 29 27 13 15 9 0
6 18 20 29 27 13 16 10 0
6 18 20 29 27 26 30 9 0
6 18 20 29 31 15 13 7 0
6 18 20 29 31 15 16 10 0
6 18 20 29 31 30 26 7 0
6 18 21 15 13 26 28 8 0
6 18 21 15 13 27 29 8 0
6 18 21 15 14 28 26 7 0
6 18 21 15 14 29 27 7 0
6 18 21 15 16 26 27 11 0
6 18 21 15 16 28 29 11 0
6 18 21 15 17 27 26 10 0
6 18 21 15 17 29 28 10 0
6 18 21 30 16 13 27 11 0
6 18 21 30 16 14 29 11 0
6 18 21 30 16 17 27 7 0
6 18 21 30 16 17 29 8 0
6 18 21 30 26 13 14 8 0
6 18 21 30 26 13 17 11 0
6 18 21 30 26 27 29 8 0
6 18 21 30 28 14 13 7 0
6 18 21 30 28 14 17 11 0
6 18 21 30 28 29 27 7 0
6 18 21 31 17 13 26 10 0
6 18 21 31 17 14 28 10 0
6 18 21 31 17 16 26 7 0
6 18 21 31 17 16 28 8 0
6 18 21 31 27 13 14 8 0
6 18 21 31 27 13 16 10 0
6 18 21 31 27 26 28 8 0
6 18 21 31 29 14 13 7 0
6 18 21 31 29 14 16 10 0
6 18 21 31 29 28 26 7 0
6 18 22 16 13 27 29 8 0
6 18 22 16 13 27 31 9 0
6 18 22 16 14 29 27 7 0
6 18 22 16 14 29 31 9 0
6 18 22 16 15 31 27 7 0
6 18 22 16 15 31 29 8 0
6 18 22 26 13 14 29 11 0
6 18 22 26 13 15 31 11 0
6 18 22 26 13 17 29 8 0
6 18 22 26 13 17 31 9 0
6 18 22 26 27 17 14 8 0
6 18 22 26 27 17 15 9 0
6 18 22 28 14 13 27 11 0
6 18 22 28 14 15 31 11 0
6 18 22 28 14 17 27 7 0
6 18 22 28 14 17 31 9 0
6 18 22 28 29 17 13 7 0
6 18 22 28 29 17 15 9 0
6 18 22 30 15 13 27 11 0
6 18 22 30 15 14 29 11 0
6 18 22 30 15 17 27 7 0
6 18 22 30 15 17 29 8 0
6 18 22 30 31 17 13 7 0
6 18 22 30 31 17 14 8 0
6 18 23 17 13 26 28 8 0
6 18 23 17 13 26 30 9 0
6 18 23 17 14 28 26 7 0
6 18 23 17 14 28 30 9 0
6 18 23 17 15 30 26 7 0
6 18 23 17 15 30 28 8 0
6 18 23 27 13 14 28 10 0
6 18 23 27 13 15 30 10 0
6 18 23 27 13 16 28 8 0
6 18 23 27 13 16 30 9 0
6 18 23 27 26 16 14 8 0
6 18 23 27 26 16 15 9 0
6 18 23 29 14 13 26 10 0
6 18 23 29 14 15 30 10 0
6 18 23 29 14 16 26 7 0
6 18 23 29 14 16 30 9 0
6 18 23 29 28 16 13 7 0
6 18 23 29 28 16 15 9 0
6 18 23 31 15 13 26 10 0
6 18 23 31 15 14 28 10 0
6 18 23 31 15 16 26 7 0
6 18 23 31 15 16 28 8 0
6 18 23 31 30 16 13 7 0
6 18 23 31 30 16 14 8 0
6 24 16 13 19 20 29 11 0
6 24 16 13 19 21 31 11 0
6 24 16 13 19 23 29 8 0
6 24 16 13 19 23 31 9 0
6 24 16 13 27 23 20 8 0
6 24 16 13 27 23 21 9 0
6 24 16 14 20 19 27 11 0
6 24 16 14 20 21 31 11 0
6 24 16 14 20 23 27 7 0
6 24 16 14 20 23 31 9 0
6 24 16 14 29 23 19 7 0
6 24 16 14 29 23 21 9 0
6 24 16 15 21 19 27 11 0
6 24 16 15 21 20 29 11 0
6 24 16 15 21 23 27 7 0
6 24 16 15 21 23 29 8 0
6 24 16 15 31 23 19 7 0
6 24 16 15 31 23 20 8 0
6 24 16 17 27 19 20 8 0
6 24 16 17 27 19 21 9 0
6 24 16 17 29 20 19 7 0
6 24 16 17 29 20 21 9 0
6 24 16 17 31 21 19 7 0
6 24 16 17 31 21 20 8 0
6 24 22 19 13 14 29 11 0
6 24 22 19 13 15 31 11 0
6 24 22 19 13 17 29 8 0
6 24 22 19 13 17 31 9 0
6 24 22 19 27 17 14 8 0
6 24 22 19 27 17 15 9 0
6 24 22 20 14 13 27 11 0
6 24 22 20 14 15 31 11 0
6 24 22 20 14 17 27 7 0
6 24 22 20 14 17 31 9 0
6 24 22 20 29 17 13 7 0
6 24 22 20 29 17 15 9 0
6 24 22 21 15 13 27 11 0
6 24 22 21 15 14 29 11 0
6 24 22 21 15 17 27 7 0
6 24 22 21 15 17 29 8 0
6 24 22 21 31 17 13 7 0
6 24 22 21 31 17 14 8 0
6 24 22 23 27 13 14 8 0
6 24 22 23 27 13 15 9 0
6 24 22 23 29 14 13 7 0
6 24 22 23 29 14 15 9 0
6 24 22 23 31 15 13 7 0
6 24 22 23 31 15 14 8 0
6 24 26 13 14 20 21 9 0
6 24 26 13 14 20 23 11 0
6 24 26 13 14 29 31 9 0
6 24 26 13 15 21 20 8 0
6 24 26 13 15 21 23 11 0
6 24 26 13 15 31 29 8 0
6 24 26 13 17 23 20 8 0
6 24 26 13 17 23 21 9 0
6 24 26 19 20 14 15 9 0
6 24 26 19 20 14 17 11 0
6 24 26 19 20 29 31 9 0
6 24 26 19 21 15 14 8 0
6 24 26 19 21 15 17 11 0
6 24 26 19 21 31 29 8 0
6 24 26 19 23 17 14 8 0
6 24 26 19 23 17 15 9 0
6 24 26 27 29 14 15 9 0
6 24 26 27 29 20 21 9 0
6 24 26 27 31 15 14 8 0
6 24 26 27 31 21 20 8 0
6 24 28 14 13 19 21 9 0
6 24 28 14 13 19 23 11 0
6 24 28 14 13 27 31 9 0
6 24 28 14 15 21 19 7 0
6 24 28 14 15 21 23 11 0
6 24 28 14 15 31 27 7 0
6 24 28 14 17 23 19 7 0
6 24 28 14 17 23 21 9 0
6 24 28 20 19 13 15 9 0
6 24 28 20 19 13 17 11 0
6 24 28 20 19 27 31 9 0
6 24 28 20 21 15 13 7 0
6 24 28 20 21 15 17 11 0
6 24 28 20 21 31 27 7 0
6 24 28 20 23 17 13 7 0
6 24 28 20 23 17 15 9 0
6 24 28 29 27 13 15 9 0
6 24 28 29 27 19 21 9 0
6 24 28 29 31 15 13 7 0
6 24 28 29 31 21 19 7 0
6 24 30 15 13 19 20 8 0
6 24 30 15 13 19 23 11 0
6 24 30 15 13 27 29 8 0
6 24 30 15 14 20 19 7 0
6 24 30 15 14 20 23 11 0
6 24 30 15 14 29 27 7 0
6 24 30 15 17 23 19 7 0
6 24 30 15 17 23 20 8 0
6 24 30 21 19 13 14 8 0
6 24 30 21 19 13 17 11 0
6 24 30 21 19 27 29 8 0
6 24 30 21 20 14 13 7 0
6 24 30 21 20 14 17 11 0
6 24 30 21 20 29 27 7 0
6 24 30 21 23 17 13 7 0
6 24 30 21 23 17 14 8 0
6 24 30 31 27 13 14 8 0
6 24 30 31 27 19 20 8 0
6 24 30 31 29 14 13 7 0
6 24 30 31 29 20 19 7 0
6 25 17 13 19 20 28 10 0
6 25 17 13 19 21 30 10 0
6 25 17 13 19 22 28 8 0
6 25 17 13 19 22 30 9 0
6 25 17 13 26 22 20 8 0
6 25 17 13 26 22 21 9 0
6 25 17 14 20 19 26 10 0
6 25 17 14 20 21 30 10 0
6 25 17 14 20 22 26 7 0
6 25 17 14 20 22 30 9 0
6 25 17 14 28 22 19 7 0
6 25 17 14 28 22 21 9 0
6 25 17 15 21 19 26 10 0
6 25 17 15 21 20 28 10 0
6 25 17 15 21 22 26 7 0
6 25 17 15 21 22 28 8 0
6 25 17 15 30 22 19 7 0
6 25 17 15 30 22 20 8 0
6 25 17 16 26 19 20 8 0
6 25 17 16 26 19 21 9 0
6 25 17 16 28 20 19 7 0
6 25 17 16 28 20 21 9 0
6 25 17 16 30 21 19 7 0
6 25 17 16 30 21 20 8 0
6 25 23 19 13 14 28 10 0
6 25 23 19 13 15 30 10 0
6 25 23 19 13 16 28 8 0
6 25 23 19 13 16 30 9 0
6 25 23 19 26 16 14 8 0
6 25 23 19 26 16 15 9 0
6 25 23 20 14 13 26 10 0
6 25 23 20 14 15 30 10 0
6 25 23 20 14 16 26 7 0
6 25 23 20 14 16 30 9 0
6 25 23 20 28 16 13 7 0
6 25 23 20 28 16 15 9 0
6 25 23 21 15 13 26 10 0
6 25 23 21 15 14 28 10 0
6 25 23 21 15 16 26 7 0
6 25 23 21 15 16 28 8 0
6 25 23 21 30 16 13 7 0
6 25 23 21 30 16 14 8 0
6 25 23 22 26 13 14 8 0
6 25 23 22 26 13 15 9 0
6 25 23 22 28 14 13 7 0
6 25 23 22 28 14 15 9 0
6 25 23 22 30 15 13 7 0
6 25 23 22 30 15 14 8 0
6 25 27 13 14 20 21 9 0
6 25 27 13 14 20 22 10 0
6 25 27 13 14 28 30 9 0
6 25 27 13 15 21 20 8 0
6 25 27 13 15 21 22 10 0
6 25 27 13 15 30 28 8 0
6 25 27 13 16 22 20 8 0
6 25 27 13 16 22 21 9 0
6 25 27 19 20 14 15 9 0
6 25 27 19 20 14 16 10 0
6 25 27 19 20 28 30 9 0
6 25 27 19 21 15 14 8 0
6 25 27 19 21 15 16 10 0
6 25 27 19 21 30 28 8 0
6 25 27 19 22 16 14 8 0
6 25 27 19 22 16 15 9 0
6 25 27 26 28 14 15 9 0
6 25 27 26 28 20 21 9 0
6 25 27 26 30 15 14 8 0
6 25 27 26 30 21 20 8 0
6 25 29 14 13 19 21 9 0
6 25 29 14 13 19 22 10 0
6 25 29 14 13 26 30 9 0
6 25 29 14 15 21 19 7 0
6 25 29 14 15 21 22 10 0
6 25 29 14 15 30 26 7 0
6 25 29 14 16 22 19 7 0
6 25 29 14 16 22 21 9 0
6 25 29 20 19 13 15 9 0
6 25 29 20 19 13 16 10 0
6 25 29 20 19 26 30 9 0
6 25 29 20 21 15 13 7 0
6 25 29 20 21 15 16 10 0
6 25 29 20 21 30 26 7 0
6 25 29 20 22 16 13 7 0
6 25 29 20 22 16 15 9 0
6 25 29 28 26 13 15 9 0
6 25 29 28 26 19 21 9 0
6 25 29 28 30 15 13 7 0
6 25 29 28 30 21 19 7 0
6 25 31 15 13 19 20 8 0
6 25 31 15 13 19 22 10 0
6 25 31 15 13 26 28 8 0
6 25 31 15 14 20 19 7 0
6 25 31 15 14 20 22 10 0
6 25 31 15 14 28 26 7 0
6 25 31 15 16 22 19 7 0
6 25 31 15 16 22 20 8 0
6 25 31 21 19 13 14 8 0
6 25 31 21 19 13 16 10 0
6 25 31 21 19 26 28 8 0
6 25 31 21 20 14 13 7 0
6 25 31 21 20 14 16 10 0
6 25 31 21 20 28 26 7 0
6 25 31 21 22 16 13 7 0
6 25 31 21 22 16 14 8 0
6 25 31 30 26 13 14 8 0
6 25 31 30 26 19 20 8 0
6 25 31 30 28 14 13 7 0
6 25 31 30 28 20 19 7 0
7 13 12 18 20 28 30 9 0
7 13 12 18 20 29 31 9 0
7 13 12 18 21 30 28 8 0
7 13 12 18 21 31 29 8 0
7 13 12 18 22 28 29 11 0
7 13 12 18 22 30 31 11 0
7 13 12 18 23 29 28 10 0
7 13 12 18 23 31 30 10 0
7 13 12 24 22 20 29 11 0
7 13 12 24 22 21 31 11 0
7 13 12 24 22 23 29 8 0
7 13 12 24 22 23 31 9 0
7 13 12 24 28 20 21 9 0
7 13 12 24 28 20 23 11 0
7 13 12 24 28 29 31 9 0
7 13 12 24 30 21 20 8 0
7 13 12 24 30 21 23 11 0
7 13 12 24 30 31 29 8 0
7 13 12 25 23 20 28 10 0
7 13 12 25 23 21 30 10 0
7 13 12 25 23 22 28 8 0
7 13 12 25 23 22 30 9 0
7 13 12 25 29 20 21 9 0
7 13 12 25 29 20 22 10 0
7 13 12 25 29 28 30 9 0
7 13 12 25 31 21 20 8 0
7 13 12 25 31 21 22 10 0
7 13 12 25 31 30 28 8 0
7 13 14 20 18 24 30 9 0
7 13 14 20 18 25 31 9 0
7 13 14 20 22 24 25 11 0
7 13 14 20 22 30 31 11 0
7 13 14 20 23 25 24 10 0
7 13 14 20 23 31 30 10 0
7 13 14 28 22 18 25 11 0
7 13 14 28 22 21 31 11 0
7 13 14 28 22 23 31 9 0
7 13 14 28 24 18 21 9 0
7 13 14 28 24 18 23 11 0
7 13 14 28 24 25 31 9 0
7 13 14 28 30 21 23 11 0
7 13 14 29 23 18 24 10 0
7 13 14 29 23 21 30 10 0
7 13 14 29 23 22 30 9 0
7 13 14 29 25 18 21 9 0
7 13 14 29 25 18 22 10 0
7 13 14 29 25 24 30 9 0
7 13 14 29 31 21 22 10 0
7 13 15 21 18 24 28 8 0
7 13 15 21 18 25 29 8 0
7 13 15 21 22 24 25 11 0
7 13 15 21 22 28 29 11 0
7 13 15 21 23 25 24 10 0
7 13 15 21 23 29 28 10 0
7 13 15 30 22 18 25 11 0
7 13 15 30 22 20 29 11 0
7 13 15 30 22 23 29 8 0
7 13 15 30 24 18 20 8 0
7 13 15 30 24 18 23 11 0
7 13 15 30 24 25 29 8 0
7 13 15 30 28 20 23 11 0
7 13 15 31 23 18 24 10 0
7 13 15 31 23 20 28 10 0
7 13 15 31 23 22 28 8 0
7 13 15 31 25 18 20 8 0
7 13 15 31 25 18 22 10 0
7 13 15 31 25 24 28 8 0
7 13 15 31 29 20 22 10 0
7 13 16 22 18 25 29 8 0
7 13 16 22 18 25 31 9 0
7 13 16 22 20 29 31 9 0
7 13 16 22 21 31 29 8 0
7 13 16 24 18 20 29 11 0
7 13 16 24 18 21 31 11 0
7 13 16 24 18 23 29 8 0
7 13 16 24 18 23 31 9 0
7 13 16 24 25 23 20 8 0
7 13 16 24 25 23 21 9 0
7 13 16 28 20 18 25 11 0
7 13 16 28 20 21 31 11 0
7 13 16 28 20 23 31 9 0
7 13 16 28 29 23 21 9 0
7 13 16 30 21 18 25 11 0
7 13 16 30 21 20 29 11 0
7 13 16 30 21 23 29 8 0
7 13 16 30 31 23 20 8 0
7 13 17 23 18 24 28 8 0
7 13 17 23 18 24 30 9 0
7 13 17 23 20 28 30 9 0
7 13 17 23 21 30 28 8 0
7 13 17 25 18 20 28 10 0
7 13 17 25 18 21 30 10 0
7 13 17 25 18 22 28 8 0
7 13 17 25 18 22 30 9 0
7 13 17 25 24 22 20 8 0
7 13 17 25 24 22 21 9 0
7 13 17 29 20 18 24 10 0
7 13 17 29 20 21 30 10 0
7 13 17 29 20 22 30 9 0
7 13 17 29 28 22 21 9 0
7 13 17 31 21 18 24 10 0
7 13 17 31 21 20 28 10 0
7 13 17 31 21 22 28 8 0
7 13 17 31 30 22 20 8 0
7 19 18 12 14 28 30 9 0
7 19 18 12 14 29 31 9 0
7 19 18 12 15 30 28 8 0
7 19 18 12 15 31 29 8 0
7 19 18 12 16 28 29 11 0
7 19 18 12 16 30 31 11 0
7 19 18 12 17 29 28 10 0
7 19 18 12 17 31 30 10 0
7 19 18 24 16 14 29 11 0
7 19 18 24 16 15 31 11 0
7 19 18 24 16 17 29 8 0
7 19 18 24 16 17 31 9 0
7 19 18 24 28 14 15 9 0
7 19 18 24 28 14 17 11 0
7 19 18 24 28 29 31 9 0
7 19 18 24 30 15 14 8 0
7 19 18 24 30 15 17 11 0
7 19 18 24 30 31 29 8 0
7 19 18 25 17 14 28 10 0
7 19 18 25 17 15 30 10 0
7 19 18 25 17 16 28 8 0
7 19 18 25 17 16 30 9 0
7 19 18 25 29 14 15 9 0
7 19 18 25 29 14 16 10 0
7 19 18 25 29 28 30 9 0
7 19 18 25 31 15 14 8 0
7 19 18 25 31 15 16 10 0
7 19 18 25 31 30 28 8 0
7 19 20 14 12 24 30 9 0
7 19 20 14 12 25 31 9 0
7 19 20 14 16 24 25 11 0
7 19 20 14 16 30 31 11 0
7 19 20 14 17 25 24 10 0
7 19 20 14 17 31 30 10 0
7 19 20 28 16 12 25 11 0
7 19 20 28 16 15 31 11 0
7 19 20 28 16 17 31 9 0
7 19 20 28 24 12 15 9 0
7 19 20 28 24 12 17 11 0
7 19 20 28 24 25 31 9 0
7 19 20 28 30 15 17 11 0
7 19 20 29 17 12 24 10 0
7 19 20 29 17 15 30 10 0
7 19 20 29 17 16 30 9 0
7 19 20 29 25 12 15 9 0
7 19 20 29 25 12 16 10 0
7 19 20 29 25 24 30 9 0
7 19 20 29 31 15 16 10 0
7 19 21 15 12 24 28 8 0
7 19 21 15 12 25 29 8 0
7 19 21 15 16 24 25 11 0
7 19 21 15 16 28 29 11 0
7 19 21 15 17 25 24 10 0
7 19 21 15 17 29 28 10 0
7 19 21 30 16 12 25 11 0
7 19 21 30 16 14 29 11 0
7 19 21 30 16 17 29 8 0
7 19 21 30 24 12 14 8 0
7 19 21 30 24 12 17 11 0
7 19 21 30 24 25 29 8 0
7 19 21 30 28 14 17 11 0
7 19 21 31 17 12 24 10 0
7 19 21 31 17 14 28 10 0
7 19 21 31 17 16 28 8 0
7 19 21 31 25 12 14 8 0
7 19 21 31 25 12 16 10 0
7 19 21 31 25 24 28 8 0
7 19 21 31 29 14 16 10 0
7 19 22 16 12 25 29 8 0
7 19 22 16 12 25 31 9 0
7 19 22 16 14 29 31 9 0
7 19 22 16 15 31 29 8 0
7 19 22 24 12 14 29 11 0
7 19 22 24 12 15 31 11 0
7 19 22 24 12 17 29 8 0
7 19 22 24 12 17 31 9 0
7 19 22 24 25 17 14 8 0
7 19 22 24 25 17 15 9 0
7 19 22 28 14 12 25 11 0
7 19 22 28 14 15 31 11 0
7 19 22 28 14 17 31 9 0
7 19 22 28 29 17 15 9 0
7 19 22 30 15 12 25 11 0
7 19 22 30 15 14 29 11 0
7 19 22 30 15 17 29 8 0
7 19 22 30 31 17 14 8 0
7 19 23 17 12 24 28 8 0
7 19 23 17 12 24 30 9 0
7 19 23 17 14 28 30 9 0
7 19 23 17 15 30 28 8 0
7 19 23 25 12 14 28 10 0
7 19 23 25 12 15 30 10 0
7 19 23 25 12 16 28 8 0
7 19 23 25 12 16 30 9 0
7 19 23 25 24 16 14 8 0
7 19 23 25 24 16 15 9 0
7 19 23 29 14 12 24 10 0
7 19 23 29 14 15 30 10 0
7 19 23 29 14 16 30 9 0
7 19 23 29 28 16 15 9 0
7 19 23 31 15 12 24 10 0
7 19 23 31 15 14 28 10 0
7 19 23 31 15 16 28 8 0
7 19 23 31 30 16 14 8 0
7 26 16 12 18 20 29 11 0
7 26 16 12 18 21 31 11 0
7 26 16 12 18 23 29 8 0
7 26 16 12 18 23 31 9 0
7 26 16 12 25 23 20 8 0
7 26 16 12 25 23 21 9 0
7 26 16 14 20 18 25 11 0
7 26 16 14 20 21 31 11 0
7 26 16 14 20 23 31 9 0
7 26 16 14 29 23 21 9 0
7 26 16 15 21 18 25 11 0
7 26 16 15 21 20 29 11 0
7 26 16 15 21 23 29 8 0
7 26 16 15 31 23 20 8 0
7 26 16 17 25 18 20 8 0
7 26 16 17 25 18 21 9 0
7 26 16 17 29 20 21 9 0
7 26 16 17 31 21 20 8 0
7 26 22 18 12 14 29 11 0
7 26 22 18 12 15 31 11 0
7 26 22 18 12 17 29 8 0
7 26 22 18 12 17 31 9 0
7 26 22 18 25 17 14 8 0
7 26 22 18 25 17 15 9 0
7 26 22 20 14 12 25 11 0
7 26 22 20 14 15 31 11 0
7 26 22 20 14 17 31 9 0
7 26 22 20 29 17 15 9 0
7 26 22 21 15 12 25 11 0
7 26 22 21 15 14 29 11 0
7 26 22 21 15 17 29 8 0
7 26 22 21 31 17 14 8 0
7 26 22 23 25 12 14 8 0
7 26 22 23 25 12 15 9 0
7 26 22 23 29 14 15 9 0
7 26 22 23 31 15 14 8 0
7 26 24 12 14 20 21 9 0
7 26 24 12 14 20 23 11 0
7 26 24 12 14 29 31 9 0
7 26 24 12 15 21 20 8 0
7 26 24 12 15 21 23 11 0
7 26 24 12 15 31 29 8 0
7 26 24 12 17 23 20 8 0
7 26 24 12 17 23 21 9 0
7 26 24 18 20 14 15 9 0
7 26 24 18 20 14 17 11 0
7 26 24 18 20 29 31 9 0
7 26 24 18 21 15 14 8 0
7 26 24 18 21 15 17 11 0
7 26 24 18 21 31 29 8 0
7 26 24 18 23 17 14 8 0
7 26 24 18 23 17 15 9 0
7 26 24 25 29 14 15 9 0
7 26 24 25 29 20 21 9 0
7 26 24 25 31 15 14 8 0
7 26 24 25 31 21 20 8 0
7 26 28 14 12 18 21 9 0
7 26 28 14 12 18 23 11 0
7 26 28 14 12 25 31 9 0
7 26 28 14 15 21 23 11 0
7 26 28 14 17 23 21 9 0
7 26 28 20 18 12 15 9 0
7 26 28 20 18 12 17 11 0
7 26 28 20 18 25 31 9 0
7 26 28 20 21 15 17 11 0
7 26 28 20 23 17 15 9 0
7 26 28 29 25 12 15 9 0
7 26 28 29 25 18 21 9 0
7 26 30 15 12 18 20 8 0
7 26 30 15 12 18 23 11 0
7 26 30 15 12 25 29 8 0
7 26 30 15 14 20 23 11 0
7 26 30 15 17 23 20 8 0
7 26 30 21 18 12 14 8 0
7 26 30 21 18 12 17 11 0
7 26 30 21 18 25 29 8 0
7 26 30 21 20 14 17 11 0
7 26 30 21 23 17 14 8 0
7 26 30 31 25 12 14 8 0
7 26 30 31 25 18 20 8 0
7 27 17 12 18 20 28 10 0
7 27 17 12 18 21 30 10 0
7 27 17 12 18 22 28 8 0
7 27 17 12 18 22 30 9 0
7 27 17 12 24 22 20 8 0
7 27 17 12 24 22 21 9 0
7 27 17 14 20 18 24 10 0
7 27 17 14 20 21 30 10 0
7 27 17 14 20 22 30 9 0
7 27 17 14 28 22 21 9 0
7 27 17 15 21 18 24 10 0
7 27 17 15 21 20 28 10 0
7 27 17 15 21 22 28 8 0
7 27 17 15 30 22 20 8 0
7 27 17 16 24 18 20 8 0
7 27 17 16 24 18 21 9 0
7 27 17 16 28 20 21 9 0
7 27 17 16 30 21 20 8 0
7 27 23 18 12 14 28 10 0
7 27 23 18 12 15 30 10 0
7 27 23 18 12 16 28 8 0
7 27 23 18 12 16 30 9 0
7 27 23 18 24 16 14 8 0
7 27 23 18 24 16 15 9 0
7 27 23 20 14 12 24 10 0
7 27 23 20 14 15 30 10 0
7 27 23 20 14 16 30 9 0
7 27 23 20 28 16 15 9 0
7 27 23 21 15 12 24 10 0
7 27 23 21 15 14 28 10 0
7 27 23 21 15 16 28 8 0
7 27 23 21 30 16 14 8 0
7 27 23 22 24 12 14 8 0
7 27 23 22 24 12 15 9 0
7 27 23 22 28 14 15 9 0
7 27 23 22 30 15 14 8 0
7 27 25 12 14 20 21 9 0
7 27 25 12 14 20 22 10 0
7 27 25 12 14 28 30 9 0
7 27 25 12 15 21 20 8 0
7 27 25 12 15 21 22 10 0
7 27 25 12 15 30 28 8 0
7 27 25 12 16 22 20 8 0
7 27 25 12 16 22 21 9 0
7 27 25 18 20 14 15 9 0
7 27 25 18 20 14 16 10 0
7 27 25 18 20 28 30 9 0
7 27 25 18 21 15 14 8 0
7 27 25 18 21 15 16 10 0
7 27 25 18 21 30 28 8 0
7 27 25 18 22 16 14 8 0
7 27 25 18 22 16 15 9 0
7 27 25 24 28 14 15 9 0
7 27 25 24 28 20 21 9 0
7 27 25 24 30 15 14 8 0
7 27 25 24 30 21 20 8 0
7 27 29 14 12 18 21 9 0
7 27 29 14 12 18 22 10 0
7 27 29 14 12 24 30 9 0
7 27 29 14 15 21 22 10 0
7 27 29 14 16 22 21 9 0
7 27 29 20 18 12 15 9 0
7 27 29 20 18 12 16 10 0
7 27 29 20 18 24 30 9 0
7 27 29 20 21 15 16 10 0
7 27 29 20 22 16 15 9 0
7 27 29 28 24 12 15 9 0
7 27 29 28 24 18 21 9 0
7 27 31 15 12 18 20 8 0
7 27 31 15 12 18 22 10 0
7 27 31 15 12 24 28 8 0
7 27 31 15 14 20 22 10 0
7 27 31 15 16 22 20 8 0
7 27 31 21 18 12 14 8 0
7 27 31 21 18 12 16 10 0
7 27 31 21 18 24 28 8 0
7 27 31 21 20 14 16 10 0
7 27 31 21 22 16 14 8 0
7 27 31 30 24 12 14 8 0
7 27 31 30 24 18 20 8 0
8 14 12 18 19 26 30 9 0
8 14 12 18 19 27 31 9 0
8 14 12 18 22 26 27 11 0
8 14 12 18 22 30 31 11 0
8 14 12 18 23 27 26 10 0
8 14 12 18 23 31 30 10 0
8 14 12 24 22 19 27 11 0
8 14 12 24 22 21 31 11 0
8 14 12 24 22 23 31 9 0
8 14 12 24 26 19 21 9 0
8 14 12 24 26 19 23 11 0
8 14 12 24 26 27 31 9 0
8 14 12 24 30 21 23 11 0
8 14 12 25 23 19 26 10 0
8 14 12 25 23 21 30 10 0
8 14 12 25 23 22 30 9 0
8 14 12 25 27 19 21 9 0
8 14 12 25 27 19 22 10 0
8 14 12 25 27 26 30 9 0
8 14 12 25 31 21 22 10 0
8 14 13 19 18 24 30 9 0
8 14 13 19 18 25 31 9 0
8 14 13 19 22 24 25 11 0
8 14 13 19 22 30 31 11 0
8 14 13 19 23 25 24 10 0
8 14 13 19 23 31 30 10 0
8 14 13 26 22 18 25 11 0
8 14 13 26 22 21 31 11 0
8 14 13 26 22 23 31 9 0
8 14 13 26 24 18 21 9 0
8 14 13 26 24 18 23 11 0
8 14 13 26 24 25 31 9 0
8 14 13 26 30 21 23 11 0
8 14 13 27 23 18 24 10 0
8 14 13 27 23 21 30 10 0
8 14 13 27 23 22 30 9 0
8 14 13 27 25 18 21 9 0
8 14 13 27 25 18 22 10 0
8 14 13 27 25 24 30 9 0
8 14 13 27 31 21 22 10 0
8 14 15 21 22 24 25 11 0
8 14 15 21 22 26 27 11 0
8 14 15 21 23 25 24 10 0
8 14 15 21 23 27 26 10 0
8 14 15 30 22 18 25 11 0
8 14 15 30 22 19 27 11 0
8 14 15 30 24 18 23 11 0
8 14 15 30 26 19 23 11 0
8 14 15 31 23 18 24 10 0
8 14 15 31 23 19 26 10 0
8 14 15 31 25 18 22 10 0
8 14 15 31 27 19 22 10 0
8 14 16 22 18 25 31 9 0
8 14 16 22 19 27 31 9 0
8 14 16 24 18 19 27 11 0
8 14 16 24 18 21 31 11 0
8 14 16 24 18 23 31 9 0
8 14 16 24 25 23 21 9 0
8 14 16 26 19 18 25 11 0
8 14 16 26 19 21 31 11 0
8 14 16 26 19 23 31 9 0
8 14 16 26 27 23 21 9 0
8 14 16 30 21 18 25 11 0
8 14 16 30 21 19 27 11 0
8 14 17 23 18 24 30 9 0
8 14 17 23 19 26 30 9 0
8 14 17 25 18 19 26 10 0
8 14 17 25 18 21 30 10 0
8 14 17 25 18 22 30 9 0
8 14 17 25 24 22 21 9 0
8 14 17 27 19 18 24 10 0
8 14 17 27 19 21 30 10 0
8 14 17 27 19 22 30 9 0
8 14 17 27 26 22 21 9 0
8 14 17 31 21 18 24 10 0
8 14 17 31 21 19 26 10 0
8 20 18 12 13 26 30 9 0
8 20 18 12 13 27 31 9 0
8 20 18 12 16 26 27 11 0
8 20 18 12 16 30 31 11 0
8 20 18 12 17 27 26 10 0
8 20 18 12 17 31 30 10 0
8 20 18 24 16 13 27 11 0
8 20 18 24 16 15 31 11 0
8 20 18 24 16 17 31 9 0
8 20 18 24 26 13 15 9 0
8 20 18 24 26 13 17 11 0
8 20 18 24 26 27 31 9 0
8 20 18 24 30 15 17 11 0
8 20 18 25 17 13 26 10 0
8 20 18 25 17 15 30 10 0
8 20 18 25 17 16 30 9 0
8 20 18 25 27 13 15 9 0
8 20 18 25 27 13 16 10 0
8 20 18 25 27 26 30 9 0
8 20 18 25 31 15 16 10 0
8 20 19 13 12 24 30 9 0
8 20 19 13 12 25 31 9 0
8 20 19 13 16 24 25 11 0
8 20 19 13 16 30 31 11 0
8 20 19 13 17 25 24 10 0
8 20 19 13 17 31 30 10 0
8 20 19 26 16 12 25 11 0
8 20 19 26 16 15 31 11 0
8 20 19 26 16 17 31 9 0
8 20 19 26 24 12 15 9 0
8 20 19 26 24 12 17 11 0
8 20 19 26 24 25 31 9 0
8 20 19 26 30 15 17 11 0
8 20 19 27 17 12 24 10 0
8 20 19 27 17 15 30 10 0
8 20 19 27 17 16 30 9 0
8 20 19 27 25 12 15 9 0
8 20 19 27 25 12 16 10 0
8 20 19 27 25 24 30 9 0
8 20 19 27 31 15 16 10 0
8 20 21 15 16 24 25 11 0
8 20 21 15 16 26 27 11 0
8 20 21 15 17 25 24 10 0
8 20 21 15 17 27 26 10 0
8 20 21 30 16 12 25 11 0
8 20 21 30 16 13 27 11 0
8 20 21 30 24 12 17 11 0
8 20 21 30 26 13 17 11 0
8 20 21 31 17 12 24 10 0
8 20 21 31 17 13 26 10 0
8 20 21 31 25 12 16 10 0
8 20 21 31 27 13 16 10 0
8 20 22 16 12 25 31 9 0
8 20 22 16 13 27 31 9 0
8 20 22 24 12 13 27 11 0
8 20 22 24 12 15 31 11 0
8 20 22 24 12 17 31 9 0
8 20 22 24 25 17 15 9 0
8 20 22 26 13 12 25 11 0
8 20 22 26 13 15 31 11 0
8 20 22 26 13 17 31 9 0
8 20 22 26 27 17 15 9 0
8 20 22 30 15 12 25 11 0
8 20 22 30 15 13 27 11 0
8 20 23 17 12 24 30 9 0
8 20 23 17 13 26 30 9 0
8 20 23 25 12 13 26 10 0
8 20 23 25 12 15 30 10 0
8 20 23 25 12 16 30 9 0
8 20 23 25 24 16 15 9 0
8 20 23 27 13 12 24 10 0
8 20 23 27 13 15 30 10 0
8 20 23 27 13 16 30 9 0
8 20 23 27 26 16 15 9 0
8 20 23 31 15 12 24 10 0
8 20 23 31 15 13 26 10 0
8 28 16 12 18 19 27 11 0
8 28 16 12 18 21 31 11 0
8 28 16 12 18 23 31 9 0
8 28 16 12 25 23 21 9 0
8 28 16 13 19 18 25 11 0
8 28 16 13 19 21 31 11 0
8 28 16 13 19 23 31 9 0
8 28 16 13 27 23 21 9 0
8 28 16 15 21 18 25 11 0
8 28 16 15 21 19 27 11 0
8 28 16 17 25 18 21 9 0
8 28 16 17 27 19 21 9 0
8 28 22 18 12 13 27 11 0
8 28 22 18 12 15 31 11 0
8 28 22 18 12 17 31 9 0
8 28 22 18 25 17 15 9 0
8 28 22 19 13 12 25 11 0
8 28 22 19 13 15 31 11 0
8 28 22 19 13 17 31 9 0
8 28 22 19 27 17 15 9 0
8 28 22 21 15 12 25 11 0
8 28 22 21 15 13 27 11 0
8 28 22 23 25 12 15 9 0
8 28 22 23 27 13 15 9 0
8 28 24 12 13 19 21 9 0
8 28 24 12 13 19 23 11 0
8 28 24 12 13 27 31 9 0
8 28 24 12 15 21 23 11 0
8 28 24 12 17 23 21 9 0
8 28 24 18 19 13 15 9 0
8 28 24 18 19 13 17 11 0
8 28 24 18 19 27 31 9 0
8 28 24 18 21 15 17 11 0
8 28 24 18 23 17 15 9 0
8 28 24 25 27 13 15 9 0
8 28 24 25 27 19 21 9 0
8 28 26 13 12 18 21 9 0
8 28 26 13 12 18 23 11 0
8 28 26 13 12 25 31 9 0
8 28 26 13 15 21 23 11 0
8 28 26 13 17 23 21 9 0
8 28 26 19 18 12 15 9 0
8 28 26 19 18 12 17 11 0
8 28 26 19 18 25 31 9 0
8 28 26 19 21 15 17 11 0
8 28 26 19 23 17 15 9 0
8 28 26 27 25 12 15 9 0
8 28 26 27 25 18 21 9 0
8 28 30 15 12 18 23 11 0
8 28 30 15 13 19 23 11 0
8 28 30 21 18 12 17 11 0
8 28 30 21 19 13 17 11 0
8 29 17 12 18 19 26 10 0
8 29 17 12 18 21 30 10 0
8 29 17 12 18 22 30 9 0
8 29 17 12 24 22 21 9 0
8 29 17 13 19 18 24 10 0
8 29 17 13 19 21 30 10 0
8 29 17 13 19 22 30 9 0
8 29 17 13 26 22 21 9 0
8 29 17 15 21 18 24 10 0
8 29 17 15 21 19 26 10 0
8 29 17 16 24 18 21 9 0
8 29 17 16 26 19 21 9 0
8 29 23 18 12 13 26 10 0
8 29 23 18 12 15 30 10 0
8 29 23 18 12 16 30 9 0
8 29 23 18 24 16 15 9 0
8 29 23 19 13 12 24 10 0
8 29 23 19 13 15 30 10 0
8 29 23 19 13 16 30 9 0
8 29 23 19 26 16 15 9 0
8 29 23 21 15 12 24 10 0
8 29 23 21 15 13 26 10 0
8 29 23 22 24 12 15 9 0
8 29 23 22 26 13 15 9 0
8 29 25 12 13 19 21 9 0
8 29 25 12 13 19 22 10 0
8 29 25 12 13 26 30 9 0
8 29 25 12 15 21 22 10 0
8 29 25 12 16 22 21 9 0
8 29 25 18 19 13 15 9 0
8 29 25 18 19 13 16 10 0
8 29 25 18 19 26 30 9 0
8 29 25 18 21 15 16 10 0
8 29 25 18 22 16 15 9 0
8 29 25 24 26 13 15 9 0
8 29 25 24 26 19 21 9 0
8 29 27 13 12 18 21 9 0
8 29 27 13 12 18 22 10 0
8 29 27 13 12 24 30 9 0
8 29 27 13 15 21 22 10 0
8 29 27 13 16 22 21 9 0
8 29 27 19 18 12 15 9 0
8 29 27 19 18 12 16 10 0
8 29 27 19 18 24 30 9 0
8 29 27 19 21 15 16 10 0
8 29 27 19 22 16 15 9 0
8 29 27 26 24 12 15 9 0
8 29 27 26 24 18 21 9 0
8 29 31 15 12 18 22 10 0
8 29 31 15 13 19 22 10 0
8 29 31 21 18 12 16 10 0
8 29 31 21 19 13 16 10 0
9 15 12 18 22 26 27 11 0
9 15 12 18 22 28 29 11 0
9 15 12 18 23 27 26 10 0
9 15 12 18 23 29 28 10 0
9 15 12 24 22 19 27 11 0
9 15 12 24 22 20 29 11 0
9 15 12 24 26 19 23 11 0
9 15 12 24 28 20 23 11 0
9 15 12 25 23 19 26 10 0
9 15 12 25 23 20 28 10 0
9 15 12 25 27 19 22 10 0
9 15 12 25 29 20 22 10 0
9 15 13 19 22 24 25 11 0
9 15 13 19 22 28 29 11 0
9 15 13 19 23 25 24 10 0
9 15 13 19 23 29 28 10 0
9 15 13 26 22 18 25 11 0
9 15 13 26 22 20 29 11 0
9 15 13 26 24 18 23 11 0
9 15 13 26 28 20 23 11 0
9 15 13 27 23 18 24 10 0
9 15 13 27 23 20 28 10 0
9 15 13 27 25 18 22 10 0
9 15 13 27 29 20 22 10 0
9 15 14 20 22 24 25 11 0
9 15 14 20 22 26 27 11 0
9 15 14 20 23 25 24 10 0
9 15 14 20 23 27 26 10 0
9 15 14 28 22 18 25 11 0
9 15 14 28 22 19 27 11 0
9 15 14 28 24 18 23 11 0
9 15 14 28 26 19 23 11 0
9 15 14 29 23 18 24 10 0
9 15 14 29 23 19 26 10 0
9 15 14 29 25 18 22 10 0
9 15 14 29 27 19 22 10 0
9 15 16 24 18 19 27 11 0
9 15 16 24 18 20 29 11 0
9 15 16 26 19 18 25 11 0
9 15 16 26 19 20 29 11 0
9 15 16 28 20 18 25 11 0
9 15 16 28 20 19 27 11 0
9 15 17 25 18 19 26 10 0
9 15 17 25 18 20 28 10 0
9 15 17 27 19 18 24 10 0
9 15 17 27 19 20 28 10 0
9 15 17 29 20 18 24 10 0
9 15 17 29 20 19 26 10 0
9 21 18 12 16 26 27 11 0
9 21 18 12 16 28 29 11 0
9 21 18 12 17 27 26 10 0
9 21 18 12 17 29 28 10 0
9 21 18 24 16 13 27 11 0
9 21 18 24 16 14 29 11 0
9 21 18 24 26 13 17 11 0
9 21 18 24 28 14 17 11 0
9 21 18 25 17 13 26 10 0
9 21 18 25 17 14 28 10 0
9 21 18 25 27 13 16 10 0
9 21 18 25 29 14 16 10 0
9 21 19 13 16 24 25 11 0
9 21 19 13 16 28 29 11 0
9 21 19 13 17 25 24 10 0
9 21 19 13 17 29 28 10 0
9 21 19 26 16 12 25 11 0
9 21 19 26 16 14 29 11 0
9 21 19 26 24 12 17 11 0
9 21 19 26 28 14 17 11 0
9 21 19 27 17 12 24 10 0
9 21 19 27 17 14 28 10 0
9 21 19 27 25 12 16 10 0
9 21 19 27 29 14 16 10 0
9 21 20 14 16 24 25 11 0
9 21 20 14 16 26 27 11 0
9 21 20 14 17 25 24 10 0
9 21 20 14 17 27 26 10 0
9 21 20 28 16 12 25 11 0
9 21 20 28 16 13 27 11 0
9 21 20 28 24 12 17 11 0
9 21 20 28 26 13 17 11 0
9 21 20 29 17 12 24 10 0
9 21 20 29 17 13 26 10 0
9 21 20 29 25 12 16 10 0
9 21 20 29 27 13 16 10 0
9 21 22 24 12 13 27 11 0
9 21 22 24 12 14 29 11 0
9 21 22 26 13 12 25 11 0
9 21 22 26 13 14 29 11 0
9 21 22 28 14 12 25 11 0
9 21 22 28 14 13 27 11 0
9 21 23 25 12 13 26 10 0
9 21 23 25 12 14 28 10 0
9 21 23 27 13 12 24 10 0
9 21 23 27 13 14 28 10 0
9 21 23 29 14 12 24 10 0
9 21 23 29 14 13 26 10 0
9 30 16 12 18 19 27 11 0
9 30 16 12 18 20 29 11 0
9 30 16 13 19 18 25 11 0
9 30 16 13 19 20 29 11 0
9 30 16 14 20 18 25 11 0
9 30 16 14 20 19 27 11 0
9 30 22 18 12 13 27 11 0
9 30 22 18 12 14 29 11 0
9 30 22 19 13 12 25 11 0
9 30 22 19 13 14 29 11 0
9 30 22 20 14 12 25 11 0
9 30 22 20 14 13 27 11 0
9 30 24 12 13 19 23 11 0
9 30 24 12 14 20 23 11 0
9 30 24 18 19 13 17 11 0
9 30 24 18 20 14 17 11 0
9 30 26 13 12 18 23 11 0
9 30 26 13 14 20 23 11 0
9 30 26 19 18 12 17 11 0
9 30 26 19 20 14 17 11 0
9 30 28 14 12 18 23 11 0
9 30 28 14 13 19 23 11 0
9 30 28 20 18 12 17 11 0
9 30 28 20 19 13 17 11 0
9 31 17 12 18 19 26 10 0
9 31 17 12 18 20 28 10 0
9 31 17 13 19 18 24 10 0
9 31 17 13 19 20 28 10 0
9 31 17 14 20 18 24 10 0
9 31 17 14 20 19 26 10 0
9 31 23 18 12 13 26 10 0
9 31 23 18 12 14 28 10 0
9 31 23 19 13 12 24 10 0
9 31 23 19 13 14 28 10 0
9 31 23 20 14 12 24 10 0
9 31 23 20 14 13 26 10 0
9 31 25 12 13 19 22 10 0
9 31 25 12 14 20 22 10 0
9 31 25 18 19 13 16 10 0
9 31 25 18 20 14 16 10 0
9 31 27 13 12 18 22 10 0
9 31 27 13 14 20 22 10 0
9 31 27 19 18 12 16 10 0
9 31 27 19 20 14 16 10 0
9 31 29 14 12 18 22 10 0
9 31 29 14 13 19 22 10 0
9 31 29 20 18 12 16 10 0
9 31 29 20 19 13 16 10 0
10 24 12 13 19 20 29 11 0
10 24 12 13 19 21 31 11 0
10 24 12 14 20 19 27 11 0
10 24 12 14 20 21 31 11 0
10 24 12 15 21 19 27 11 0
10 24 12 15 21 20 29 11 0
10 24 18 19 13 14 29 11 0
10 24 18 19 13 15 31 11 0
10 24 18 20 14 13 27 11 0
10 24 18 20 14 15 31 11 0
10 24 18 21 15 13 27 11 0
10 24 18 21 15 14 29 11 0
10 26 13 12 18 20 29 11 0
10 26 13 12 18 21 31 11 0
10 26 13 14 20 18 25 11 0
10 26 13 14 20 21 31 11 0
10 26 13 15 21 18 25 11 0
10 26 13 15 21 20 29 11 0
10 26 19 18 12 14 29 11 0
10 26 19 18 12 15 31 11 0
10 26 19 20 14 12 25 11 0
10 26 19 20 14 15 31 11 0
10 26 19 21 15 12 25 11 0
10 26 19 21 15 14 29 11 0
10 28 14 12 18 19 27 11 0
10 28 14 12 18 21 31 11 0
10 28 14 13 19 18 25 11 0
10 28 14 13 19 21 31 11 0
10 28 14 15 21 18 25 11 0
10 28 14 15 21 19 27 11 0
10 28 20 18 12 13 27 11 0
10 28 20 18 12 15 31 11 0
10 28 20 19 13 12 25 11 0
10 28 20 19 13 15 31 11 0
10 28 20 21 15 12 25 11 0
10 28 20 21 15 13 27 11 0
10 30 15 12 18 19 27 11 0
10 30 15 12 18 20 29 11 0
10 30 15 13 19 18 25 11 0
10 30 15 13 19 20 29 11 0
10 30 15 14 20 18 25 11 0
10 30 15 14 20 19 27 11 0
10 30 21 18 12 13 27 11 0
10 30 21 18 12 14 29 11 0
10 30 21 19 13 12 25 11 0
10 30 21 19 13 14 29 11 0
10 30 21 20 14 12 25 11 0
10 30 21 20 14 13 27 11 0
12 18 19 26 28 29 31 15 0
12 18 19 26 30 31 29 14 0
12 18 19 27 29 28 30 15 0
12 18 19 27 31 30 28 14 0
12 18 20 28 26 27 31 15 0
12 18 20 28 30 31 27 13 0
12 18 20 29 27 26 30 15 0
12 18 20 29 31 30 26 13 0
12 18 21 30 26 27 29 14 0
12 18 21 30 28 29 27 13 0
12 18 21 31 27 26 28 14 0
12 18 21 31 29 28 26 13 0
12 24 26 19 20 29 31 15 0
12 24 26 19 21 31 29 14 0
12 24 26 27 29 20 21 15 0
12 24 26 27 31 21 20 14 0
12 24 28 20 19 27 31 15 0
12 24 28 20 21 31 27 13 0
12 24 28 29 27 19 21 15 0
12 24 28 29 31 21 19 13 0
12 24 30 21 19 27 29 14 0
12 24 30 21 20 29 27 13 0
12 24 30 31 27 19 20 14 0
12 24 30 31 29 20 19 13 0
12 25 27 19 20 28 30 15 0
12 25 27 19 21 30 28 14 0
12 25 27 26 28 20 21 15 0
12 25 27 26 30 21 20 14 0
12 25 29 20 19 26 30 15 0
12 25 29 20 21 30 26 13 0
12 25 29 28 26 19 21 15 0
12 25 29 28 30 21 19 13 0
12 25 31 21 19 26 28 14 0
12 25 31 21 20 28 26 13 0
12 25 31 30 26 19 20 14 0
12 25 31 30 28 20 19 13 0
13 19 18 24 28 29 31 15 0
13 19 18 24 30 31 29 14 0
13 19 18 25 29 28 30 15 0
13 19 18 25 31 30 28 14 0
13 19 20 28 24 25 31 15 0
13 19 20 29 25 24 30 15 0
13 19 21 30 24 25 29 14 0
13 19 21 31 25 24 28 14 0
13 26 24 18 20 29 31 15 0
13 26 24 18 21 31 29 14 0
13 26 24 25 29 20 21 15 0
13 26 24 25 31 21 20 14 0
13 26 28 20 18 25 31 15 0
13 26 28 29 25 18 21 15 0
13 26 30 21 18 25 29 14 0
13 26 30 31 25 18 20 14 0
13 27 25 18 20 28 30 15 0
13 27 25 18 21 30 28 14 0
13 27 25 24 28 20 21 15 0
13 27 25 24 30 21 20 14 0
13 27 29 20 18 24 30 15 0
13 27 29 28 24 18 21 15 0
13 27 31 21 18 24 28 14 0
13 27 31 30 24 18 20 14 0
14 20 18 24 26 27 31 15 0
14 20 18 25 27 26 30 15 0
14 20 19 26 24 25 31 15 0
14 20 19 27 25 24 30 15 0
14 28 24 18 19 27 31 15 0
14 28 24 25 27 19 21 15 0
14 28 26 19 18 25 31 15 0
14 28 26 27 25 18 21 15 0
14 29 25 18 19 26 30 15 0
14 29 25 24 26 19 21 15 0
14 29 27 19 18 24 30 15 0
14 29 27 26 24 18 21 15 0
